c frozen sparse O-aware rational recursive S3 base
p cnf 2517 4731
1 2 3 0
-1 1264 0
-2 1265 0
-1264 1265 0
-2 -1264 0
-3 -1265 0
4 5 6 0
-4 1266 0
-5 1267 0
-1266 1267 0
-5 -1266 0
-6 -1267 0
7 8 9 0
-7 1268 0
-8 1269 0
-1268 1269 0
-8 -1268 0
-9 -1269 0
10 11 12 0
-10 1270 0
-11 1271 0
-1270 1271 0
-11 -1270 0
-12 -1271 0
13 14 15 0
-13 1272 0
-14 1273 0
-1272 1273 0
-14 -1272 0
-15 -1273 0
16 17 18 19 20 21 22 23 24 25 26 27 28 0
-16 1274 0
-17 1275 0
-1274 1275 0
-17 -1274 0
-18 1276 0
-1275 1276 0
-18 -1275 0
-19 1277 0
-1276 1277 0
-19 -1276 0
-20 1278 0
-1277 1278 0
-20 -1277 0
-21 1279 0
-1278 1279 0
-21 -1278 0
-22 1280 0
-1279 1280 0
-22 -1279 0
-23 1281 0
-1280 1281 0
-23 -1280 0
-24 1282 0
-1281 1282 0
-24 -1281 0
-25 1283 0
-1282 1283 0
-25 -1282 0
-26 1284 0
-1283 1284 0
-26 -1283 0
-27 1285 0
-1284 1285 0
-27 -1284 0
-28 -1285 0
29 30 31 32 33 34 35 36 37 38 39 40 41 42 43 44 45 46 47 48 49 50 51 52 53 54 55 56 57 58 59 60 61 62 63 64 65 66 67 68 69 70 71 72 73 74 75 76 77 78 79 80 81 82 83 84 85 86 87 88 0
-29 1286 0
-30 1287 0
-1286 1287 0
-30 -1286 0
-31 1288 0
-1287 1288 0
-31 -1287 0
-32 1289 0
-1288 1289 0
-32 -1288 0
-33 1290 0
-1289 1290 0
-33 -1289 0
-34 1291 0
-1290 1291 0
-34 -1290 0
-35 1292 0
-1291 1292 0
-35 -1291 0
-36 1293 0
-1292 1293 0
-36 -1292 0
-37 1294 0
-1293 1294 0
-37 -1293 0
-38 1295 0
-1294 1295 0
-38 -1294 0
-39 1296 0
-1295 1296 0
-39 -1295 0
-40 1297 0
-1296 1297 0
-40 -1296 0
-41 1298 0
-1297 1298 0
-41 -1297 0
-42 1299 0
-1298 1299 0
-42 -1298 0
-43 1300 0
-1299 1300 0
-43 -1299 0
-44 1301 0
-1300 1301 0
-44 -1300 0
-45 1302 0
-1301 1302 0
-45 -1301 0
-46 1303 0
-1302 1303 0
-46 -1302 0
-47 1304 0
-1303 1304 0
-47 -1303 0
-48 1305 0
-1304 1305 0
-48 -1304 0
-49 1306 0
-1305 1306 0
-49 -1305 0
-50 1307 0
-1306 1307 0
-50 -1306 0
-51 1308 0
-1307 1308 0
-51 -1307 0
-52 1309 0
-1308 1309 0
-52 -1308 0
-53 1310 0
-1309 1310 0
-53 -1309 0
-54 1311 0
-1310 1311 0
-54 -1310 0
-55 1312 0
-1311 1312 0
-55 -1311 0
-56 1313 0
-1312 1313 0
-56 -1312 0
-57 1314 0
-1313 1314 0
-57 -1313 0
-58 1315 0
-1314 1315 0
-58 -1314 0
-59 1316 0
-1315 1316 0
-59 -1315 0
-60 1317 0
-1316 1317 0
-60 -1316 0
-61 1318 0
-1317 1318 0
-61 -1317 0
-62 1319 0
-1318 1319 0
-62 -1318 0
-63 1320 0
-1319 1320 0
-63 -1319 0
-64 1321 0
-1320 1321 0
-64 -1320 0
-65 1322 0
-1321 1322 0
-65 -1321 0
-66 1323 0
-1322 1323 0
-66 -1322 0
-67 1324 0
-1323 1324 0
-67 -1323 0
-68 1325 0
-1324 1325 0
-68 -1324 0
-69 1326 0
-1325 1326 0
-69 -1325 0
-70 1327 0
-1326 1327 0
-70 -1326 0
-71 1328 0
-1327 1328 0
-71 -1327 0
-72 1329 0
-1328 1329 0
-72 -1328 0
-73 1330 0
-1329 1330 0
-73 -1329 0
-74 1331 0
-1330 1331 0
-74 -1330 0
-75 1332 0
-1331 1332 0
-75 -1331 0
-76 1333 0
-1332 1333 0
-76 -1332 0
-77 1334 0
-1333 1334 0
-77 -1333 0
-78 1335 0
-1334 1335 0
-78 -1334 0
-79 1336 0
-1335 1336 0
-79 -1335 0
-80 1337 0
-1336 1337 0
-80 -1336 0
-81 1338 0
-1337 1338 0
-81 -1337 0
-82 1339 0
-1338 1339 0
-82 -1338 0
-83 1340 0
-1339 1340 0
-83 -1339 0
-84 1341 0
-1340 1341 0
-84 -1340 0
-85 1342 0
-1341 1342 0
-85 -1341 0
-86 1343 0
-1342 1343 0
-86 -1342 0
-87 1344 0
-1343 1344 0
-87 -1343 0
-88 -1344 0
89 90 91 92 93 94 95 96 97 98 99 100 101 102 103 104 105 106 107 108 109 110 111 112 113 114 115 116 117 118 119 120 121 122 123 124 125 126 127 128 129 130 131 132 133 134 135 136 137 138 139 140 141 142 143 144 145 146 147 148 149 150 151 152 153 154 155 156 157 158 159 160 161 162 163 164 165 166 167 168 169 170 171 172 173 174 175 176 177 178 179 180 181 182 183 184 185 186 187 188 189 190 191 192 193 194 195 196 197 198 199 200 201 202 203 204 205 206 207 208 209 210 211 212 213 214 215 216 217 218 219 220 221 222 223 224 225 226 227 228 229 230 231 232 233 234 235 236 237 238 239 240 241 242 243 244 245 246 247 248 249 250 251 252 253 254 255 256 257 258 259 260 261 262 263 264 265 266 267 268 269 270 271 272 273 274 275 276 277 278 279 280 281 282 283 284 285 286 287 288 289 290 291 292 293 294 295 296 297 298 299 300 301 302 303 304 305 306 307 308 309 310 311 312 313 314 315 316 317 318 319 320 321 322 323 324 325 326 327 328 329 330 331 332 333 334 335 0
-89 1345 0
-90 1346 0
-1345 1346 0
-90 -1345 0
-91 1347 0
-1346 1347 0
-91 -1346 0
-92 1348 0
-1347 1348 0
-92 -1347 0
-93 1349 0
-1348 1349 0
-93 -1348 0
-94 1350 0
-1349 1350 0
-94 -1349 0
-95 1351 0
-1350 1351 0
-95 -1350 0
-96 1352 0
-1351 1352 0
-96 -1351 0
-97 1353 0
-1352 1353 0
-97 -1352 0
-98 1354 0
-1353 1354 0
-98 -1353 0
-99 1355 0
-1354 1355 0
-99 -1354 0
-100 1356 0
-1355 1356 0
-100 -1355 0
-101 1357 0
-1356 1357 0
-101 -1356 0
-102 1358 0
-1357 1358 0
-102 -1357 0
-103 1359 0
-1358 1359 0
-103 -1358 0
-104 1360 0
-1359 1360 0
-104 -1359 0
-105 1361 0
-1360 1361 0
-105 -1360 0
-106 1362 0
-1361 1362 0
-106 -1361 0
-107 1363 0
-1362 1363 0
-107 -1362 0
-108 1364 0
-1363 1364 0
-108 -1363 0
-109 1365 0
-1364 1365 0
-109 -1364 0
-110 1366 0
-1365 1366 0
-110 -1365 0
-111 1367 0
-1366 1367 0
-111 -1366 0
-112 1368 0
-1367 1368 0
-112 -1367 0
-113 1369 0
-1368 1369 0
-113 -1368 0
-114 1370 0
-1369 1370 0
-114 -1369 0
-115 1371 0
-1370 1371 0
-115 -1370 0
-116 1372 0
-1371 1372 0
-116 -1371 0
-117 1373 0
-1372 1373 0
-117 -1372 0
-118 1374 0
-1373 1374 0
-118 -1373 0
-119 1375 0
-1374 1375 0
-119 -1374 0
-120 1376 0
-1375 1376 0
-120 -1375 0
-121 1377 0
-1376 1377 0
-121 -1376 0
-122 1378 0
-1377 1378 0
-122 -1377 0
-123 1379 0
-1378 1379 0
-123 -1378 0
-124 1380 0
-1379 1380 0
-124 -1379 0
-125 1381 0
-1380 1381 0
-125 -1380 0
-126 1382 0
-1381 1382 0
-126 -1381 0
-127 1383 0
-1382 1383 0
-127 -1382 0
-128 1384 0
-1383 1384 0
-128 -1383 0
-129 1385 0
-1384 1385 0
-129 -1384 0
-130 1386 0
-1385 1386 0
-130 -1385 0
-131 1387 0
-1386 1387 0
-131 -1386 0
-132 1388 0
-1387 1388 0
-132 -1387 0
-133 1389 0
-1388 1389 0
-133 -1388 0
-134 1390 0
-1389 1390 0
-134 -1389 0
-135 1391 0
-1390 1391 0
-135 -1390 0
-136 1392 0
-1391 1392 0
-136 -1391 0
-137 1393 0
-1392 1393 0
-137 -1392 0
-138 1394 0
-1393 1394 0
-138 -1393 0
-139 1395 0
-1394 1395 0
-139 -1394 0
-140 1396 0
-1395 1396 0
-140 -1395 0
-141 1397 0
-1396 1397 0
-141 -1396 0
-142 1398 0
-1397 1398 0
-142 -1397 0
-143 1399 0
-1398 1399 0
-143 -1398 0
-144 1400 0
-1399 1400 0
-144 -1399 0
-145 1401 0
-1400 1401 0
-145 -1400 0
-146 1402 0
-1401 1402 0
-146 -1401 0
-147 1403 0
-1402 1403 0
-147 -1402 0
-148 1404 0
-1403 1404 0
-148 -1403 0
-149 1405 0
-1404 1405 0
-149 -1404 0
-150 1406 0
-1405 1406 0
-150 -1405 0
-151 1407 0
-1406 1407 0
-151 -1406 0
-152 1408 0
-1407 1408 0
-152 -1407 0
-153 1409 0
-1408 1409 0
-153 -1408 0
-154 1410 0
-1409 1410 0
-154 -1409 0
-155 1411 0
-1410 1411 0
-155 -1410 0
-156 1412 0
-1411 1412 0
-156 -1411 0
-157 1413 0
-1412 1413 0
-157 -1412 0
-158 1414 0
-1413 1414 0
-158 -1413 0
-159 1415 0
-1414 1415 0
-159 -1414 0
-160 1416 0
-1415 1416 0
-160 -1415 0
-161 1417 0
-1416 1417 0
-161 -1416 0
-162 1418 0
-1417 1418 0
-162 -1417 0
-163 1419 0
-1418 1419 0
-163 -1418 0
-164 1420 0
-1419 1420 0
-164 -1419 0
-165 1421 0
-1420 1421 0
-165 -1420 0
-166 1422 0
-1421 1422 0
-166 -1421 0
-167 1423 0
-1422 1423 0
-167 -1422 0
-168 1424 0
-1423 1424 0
-168 -1423 0
-169 1425 0
-1424 1425 0
-169 -1424 0
-170 1426 0
-1425 1426 0
-170 -1425 0
-171 1427 0
-1426 1427 0
-171 -1426 0
-172 1428 0
-1427 1428 0
-172 -1427 0
-173 1429 0
-1428 1429 0
-173 -1428 0
-174 1430 0
-1429 1430 0
-174 -1429 0
-175 1431 0
-1430 1431 0
-175 -1430 0
-176 1432 0
-1431 1432 0
-176 -1431 0
-177 1433 0
-1432 1433 0
-177 -1432 0
-178 1434 0
-1433 1434 0
-178 -1433 0
-179 1435 0
-1434 1435 0
-179 -1434 0
-180 1436 0
-1435 1436 0
-180 -1435 0
-181 1437 0
-1436 1437 0
-181 -1436 0
-182 1438 0
-1437 1438 0
-182 -1437 0
-183 1439 0
-1438 1439 0
-183 -1438 0
-184 1440 0
-1439 1440 0
-184 -1439 0
-185 1441 0
-1440 1441 0
-185 -1440 0
-186 1442 0
-1441 1442 0
-186 -1441 0
-187 1443 0
-1442 1443 0
-187 -1442 0
-188 1444 0
-1443 1444 0
-188 -1443 0
-189 1445 0
-1444 1445 0
-189 -1444 0
-190 1446 0
-1445 1446 0
-190 -1445 0
-191 1447 0
-1446 1447 0
-191 -1446 0
-192 1448 0
-1447 1448 0
-192 -1447 0
-193 1449 0
-1448 1449 0
-193 -1448 0
-194 1450 0
-1449 1450 0
-194 -1449 0
-195 1451 0
-1450 1451 0
-195 -1450 0
-196 1452 0
-1451 1452 0
-196 -1451 0
-197 1453 0
-1452 1453 0
-197 -1452 0
-198 1454 0
-1453 1454 0
-198 -1453 0
-199 1455 0
-1454 1455 0
-199 -1454 0
-200 1456 0
-1455 1456 0
-200 -1455 0
-201 1457 0
-1456 1457 0
-201 -1456 0
-202 1458 0
-1457 1458 0
-202 -1457 0
-203 1459 0
-1458 1459 0
-203 -1458 0
-204 1460 0
-1459 1460 0
-204 -1459 0
-205 1461 0
-1460 1461 0
-205 -1460 0
-206 1462 0
-1461 1462 0
-206 -1461 0
-207 1463 0
-1462 1463 0
-207 -1462 0
-208 1464 0
-1463 1464 0
-208 -1463 0
-209 1465 0
-1464 1465 0
-209 -1464 0
-210 1466 0
-1465 1466 0
-210 -1465 0
-211 1467 0
-1466 1467 0
-211 -1466 0
-212 1468 0
-1467 1468 0
-212 -1467 0
-213 1469 0
-1468 1469 0
-213 -1468 0
-214 1470 0
-1469 1470 0
-214 -1469 0
-215 1471 0
-1470 1471 0
-215 -1470 0
-216 1472 0
-1471 1472 0
-216 -1471 0
-217 1473 0
-1472 1473 0
-217 -1472 0
-218 1474 0
-1473 1474 0
-218 -1473 0
-219 1475 0
-1474 1475 0
-219 -1474 0
-220 1476 0
-1475 1476 0
-220 -1475 0
-221 1477 0
-1476 1477 0
-221 -1476 0
-222 1478 0
-1477 1478 0
-222 -1477 0
-223 1479 0
-1478 1479 0
-223 -1478 0
-224 1480 0
-1479 1480 0
-224 -1479 0
-225 1481 0
-1480 1481 0
-225 -1480 0
-226 1482 0
-1481 1482 0
-226 -1481 0
-227 1483 0
-1482 1483 0
-227 -1482 0
-228 1484 0
-1483 1484 0
-228 -1483 0
-229 1485 0
-1484 1485 0
-229 -1484 0
-230 1486 0
-1485 1486 0
-230 -1485 0
-231 1487 0
-1486 1487 0
-231 -1486 0
-232 1488 0
-1487 1488 0
-232 -1487 0
-233 1489 0
-1488 1489 0
-233 -1488 0
-234 1490 0
-1489 1490 0
-234 -1489 0
-235 1491 0
-1490 1491 0
-235 -1490 0
-236 1492 0
-1491 1492 0
-236 -1491 0
-237 1493 0
-1492 1493 0
-237 -1492 0
-238 1494 0
-1493 1494 0
-238 -1493 0
-239 1495 0
-1494 1495 0
-239 -1494 0
-240 1496 0
-1495 1496 0
-240 -1495 0
-241 1497 0
-1496 1497 0
-241 -1496 0
-242 1498 0
-1497 1498 0
-242 -1497 0
-243 1499 0
-1498 1499 0
-243 -1498 0
-244 1500 0
-1499 1500 0
-244 -1499 0
-245 1501 0
-1500 1501 0
-245 -1500 0
-246 1502 0
-1501 1502 0
-246 -1501 0
-247 1503 0
-1502 1503 0
-247 -1502 0
-248 1504 0
-1503 1504 0
-248 -1503 0
-249 1505 0
-1504 1505 0
-249 -1504 0
-250 1506 0
-1505 1506 0
-250 -1505 0
-251 1507 0
-1506 1507 0
-251 -1506 0
-252 1508 0
-1507 1508 0
-252 -1507 0
-253 1509 0
-1508 1509 0
-253 -1508 0
-254 1510 0
-1509 1510 0
-254 -1509 0
-255 1511 0
-1510 1511 0
-255 -1510 0
-256 1512 0
-1511 1512 0
-256 -1511 0
-257 1513 0
-1512 1513 0
-257 -1512 0
-258 1514 0
-1513 1514 0
-258 -1513 0
-259 1515 0
-1514 1515 0
-259 -1514 0
-260 1516 0
-1515 1516 0
-260 -1515 0
-261 1517 0
-1516 1517 0
-261 -1516 0
-262 1518 0
-1517 1518 0
-262 -1517 0
-263 1519 0
-1518 1519 0
-263 -1518 0
-264 1520 0
-1519 1520 0
-264 -1519 0
-265 1521 0
-1520 1521 0
-265 -1520 0
-266 1522 0
-1521 1522 0
-266 -1521 0
-267 1523 0
-1522 1523 0
-267 -1522 0
-268 1524 0
-1523 1524 0
-268 -1523 0
-269 1525 0
-1524 1525 0
-269 -1524 0
-270 1526 0
-1525 1526 0
-270 -1525 0
-271 1527 0
-1526 1527 0
-271 -1526 0
-272 1528 0
-1527 1528 0
-272 -1527 0
-273 1529 0
-1528 1529 0
-273 -1528 0
-274 1530 0
-1529 1530 0
-274 -1529 0
-275 1531 0
-1530 1531 0
-275 -1530 0
-276 1532 0
-1531 1532 0
-276 -1531 0
-277 1533 0
-1532 1533 0
-277 -1532 0
-278 1534 0
-1533 1534 0
-278 -1533 0
-279 1535 0
-1534 1535 0
-279 -1534 0
-280 1536 0
-1535 1536 0
-280 -1535 0
-281 1537 0
-1536 1537 0
-281 -1536 0
-282 1538 0
-1537 1538 0
-282 -1537 0
-283 1539 0
-1538 1539 0
-283 -1538 0
-284 1540 0
-1539 1540 0
-284 -1539 0
-285 1541 0
-1540 1541 0
-285 -1540 0
-286 1542 0
-1541 1542 0
-286 -1541 0
-287 1543 0
-1542 1543 0
-287 -1542 0
-288 1544 0
-1543 1544 0
-288 -1543 0
-289 1545 0
-1544 1545 0
-289 -1544 0
-290 1546 0
-1545 1546 0
-290 -1545 0
-291 1547 0
-1546 1547 0
-291 -1546 0
-292 1548 0
-1547 1548 0
-292 -1547 0
-293 1549 0
-1548 1549 0
-293 -1548 0
-294 1550 0
-1549 1550 0
-294 -1549 0
-295 1551 0
-1550 1551 0
-295 -1550 0
-296 1552 0
-1551 1552 0
-296 -1551 0
-297 1553 0
-1552 1553 0
-297 -1552 0
-298 1554 0
-1553 1554 0
-298 -1553 0
-299 1555 0
-1554 1555 0
-299 -1554 0
-300 1556 0
-1555 1556 0
-300 -1555 0
-301 1557 0
-1556 1557 0
-301 -1556 0
-302 1558 0
-1557 1558 0
-302 -1557 0
-303 1559 0
-1558 1559 0
-303 -1558 0
-304 1560 0
-1559 1560 0
-304 -1559 0
-305 1561 0
-1560 1561 0
-305 -1560 0
-306 1562 0
-1561 1562 0
-306 -1561 0
-307 1563 0
-1562 1563 0
-307 -1562 0
-308 1564 0
-1563 1564 0
-308 -1563 0
-309 1565 0
-1564 1565 0
-309 -1564 0
-310 1566 0
-1565 1566 0
-310 -1565 0
-311 1567 0
-1566 1567 0
-311 -1566 0
-312 1568 0
-1567 1568 0
-312 -1567 0
-313 1569 0
-1568 1569 0
-313 -1568 0
-314 1570 0
-1569 1570 0
-314 -1569 0
-315 1571 0
-1570 1571 0
-315 -1570 0
-316 1572 0
-1571 1572 0
-316 -1571 0
-317 1573 0
-1572 1573 0
-317 -1572 0
-318 1574 0
-1573 1574 0
-318 -1573 0
-319 1575 0
-1574 1575 0
-319 -1574 0
-320 1576 0
-1575 1576 0
-320 -1575 0
-321 1577 0
-1576 1577 0
-321 -1576 0
-322 1578 0
-1577 1578 0
-322 -1577 0
-323 1579 0
-1578 1579 0
-323 -1578 0
-324 1580 0
-1579 1580 0
-324 -1579 0
-325 1581 0
-1580 1581 0
-325 -1580 0
-326 1582 0
-1581 1582 0
-326 -1581 0
-327 1583 0
-1582 1583 0
-327 -1582 0
-328 1584 0
-1583 1584 0
-328 -1583 0
-329 1585 0
-1584 1585 0
-329 -1584 0
-330 1586 0
-1585 1586 0
-330 -1585 0
-331 1587 0
-1586 1587 0
-331 -1586 0
-332 1588 0
-1587 1588 0
-332 -1587 0
-333 1589 0
-1588 1589 0
-333 -1588 0
-334 1590 0
-1589 1590 0
-334 -1589 0
-335 -1590 0
336 337 338 339 340 341 342 343 344 345 346 347 348 349 350 351 352 353 354 355 356 357 358 359 360 361 362 363 364 365 366 367 368 369 370 371 372 373 374 375 376 377 378 379 380 381 382 383 384 385 386 387 388 389 390 391 392 393 394 395 396 397 398 399 400 401 402 403 404 405 406 407 408 409 410 411 412 413 414 415 416 417 418 419 420 421 422 423 424 425 426 427 428 429 430 431 432 433 434 435 436 437 438 439 440 441 442 443 444 445 446 447 448 449 450 451 452 453 454 455 456 457 458 459 460 461 462 463 464 465 466 467 468 469 470 471 472 473 474 475 476 477 478 479 480 481 482 483 484 485 486 487 488 489 490 491 492 493 494 495 496 497 498 499 500 501 502 503 504 505 506 507 508 509 510 511 512 513 514 515 516 517 518 519 520 521 522 523 524 525 526 527 528 529 530 531 532 533 534 535 536 537 538 539 540 541 542 543 544 545 546 547 548 549 550 551 552 553 554 555 556 557 558 559 560 561 562 563 564 565 566 567 568 569 570 571 572 573 574 575 576 577 578 579 580 581 582 583 584 585 586 587 588 589 590 591 592 593 594 595 596 597 598 599 600 601 602 603 604 605 606 607 608 609 610 611 612 613 614 615 616 617 618 619 620 621 622 623 624 625 626 627 628 629 630 631 632 633 634 635 636 637 638 639 640 641 642 643 644 645 646 647 648 649 650 651 652 653 654 655 656 657 658 659 660 661 662 663 664 665 666 667 668 669 670 671 672 673 674 675 676 677 678 679 680 681 682 683 684 685 686 687 688 689 690 691 692 693 694 695 696 697 698 699 700 701 702 703 704 705 706 707 708 709 710 711 712 713 714 715 716 717 718 719 720 721 722 723 724 725 726 727 728 729 730 731 732 733 734 735 736 737 738 739 740 741 742 743 744 745 746 747 748 749 750 751 752 753 754 755 756 757 758 759 760 761 762 763 764 765 766 767 768 769 770 771 772 773 774 775 776 777 778 779 780 781 782 783 784 785 786 787 788 789 790 791 792 793 794 795 796 797 798 799 800 801 802 803 804 805 806 807 808 809 810 811 812 813 814 815 816 817 818 819 820 821 822 823 824 825 826 827 828 829 830 831 832 833 834 835 836 837 838 839 840 841 842 843 844 845 846 847 848 849 850 851 852 853 854 855 856 857 858 859 860 861 862 863 864 865 866 867 868 869 870 871 872 873 874 875 876 877 878 879 880 881 882 883 884 885 886 887 888 889 890 891 892 893 894 895 896 897 898 899 900 901 902 903 904 905 906 907 908 909 910 911 912 913 914 915 916 917 918 919 920 921 922 923 924 925 926 927 928 929 930 931 932 933 934 935 936 937 938 939 940 941 942 943 944 945 946 947 948 949 950 951 952 953 954 955 956 957 958 959 960 961 962 963 964 965 966 967 968 969 970 971 972 973 974 975 976 977 978 979 980 981 982 983 984 985 986 987 988 989 990 991 992 993 994 995 996 997 998 999 1000 1001 1002 1003 1004 1005 1006 1007 1008 1009 1010 1011 1012 1013 1014 1015 1016 1017 1018 1019 1020 1021 1022 1023 1024 1025 1026 1027 1028 1029 1030 1031 1032 1033 1034 1035 1036 1037 1038 1039 1040 1041 1042 1043 1044 1045 1046 1047 1048 1049 1050 1051 1052 1053 1054 1055 1056 1057 1058 1059 1060 1061 1062 1063 1064 1065 1066 1067 1068 1069 1070 1071 1072 1073 1074 1075 1076 1077 1078 1079 1080 1081 1082 1083 1084 1085 1086 1087 1088 1089 1090 1091 1092 1093 1094 1095 1096 1097 1098 1099 1100 1101 1102 1103 1104 1105 1106 1107 1108 1109 1110 1111 1112 1113 1114 1115 1116 1117 1118 1119 1120 1121 1122 1123 1124 1125 1126 1127 1128 1129 1130 1131 1132 1133 1134 1135 1136 1137 1138 1139 1140 1141 1142 1143 1144 1145 1146 1147 1148 1149 1150 1151 1152 1153 1154 1155 1156 1157 1158 1159 1160 1161 1162 1163 1164 1165 1166 1167 1168 1169 1170 1171 1172 1173 1174 1175 1176 1177 1178 1179 1180 1181 1182 1183 1184 1185 1186 1187 1188 1189 1190 1191 1192 1193 1194 1195 1196 1197 1198 1199 1200 1201 1202 1203 1204 1205 1206 1207 1208 1209 1210 1211 1212 1213 1214 1215 1216 1217 1218 1219 1220 1221 1222 1223 1224 1225 1226 1227 1228 1229 1230 1231 1232 1233 1234 1235 1236 1237 1238 1239 1240 1241 1242 1243 1244 1245 1246 1247 1248 1249 1250 1251 1252 1253 1254 1255 1256 1257 1258 1259 1260 1261 1262 1263 0
-336 1591 0
-337 1592 0
-1591 1592 0
-337 -1591 0
-338 1593 0
-1592 1593 0
-338 -1592 0
-339 1594 0
-1593 1594 0
-339 -1593 0
-340 1595 0
-1594 1595 0
-340 -1594 0
-341 1596 0
-1595 1596 0
-341 -1595 0
-342 1597 0
-1596 1597 0
-342 -1596 0
-343 1598 0
-1597 1598 0
-343 -1597 0
-344 1599 0
-1598 1599 0
-344 -1598 0
-345 1600 0
-1599 1600 0
-345 -1599 0
-346 1601 0
-1600 1601 0
-346 -1600 0
-347 1602 0
-1601 1602 0
-347 -1601 0
-348 1603 0
-1602 1603 0
-348 -1602 0
-349 1604 0
-1603 1604 0
-349 -1603 0
-350 1605 0
-1604 1605 0
-350 -1604 0
-351 1606 0
-1605 1606 0
-351 -1605 0
-352 1607 0
-1606 1607 0
-352 -1606 0
-353 1608 0
-1607 1608 0
-353 -1607 0
-354 1609 0
-1608 1609 0
-354 -1608 0
-355 1610 0
-1609 1610 0
-355 -1609 0
-356 1611 0
-1610 1611 0
-356 -1610 0
-357 1612 0
-1611 1612 0
-357 -1611 0
-358 1613 0
-1612 1613 0
-358 -1612 0
-359 1614 0
-1613 1614 0
-359 -1613 0
-360 1615 0
-1614 1615 0
-360 -1614 0
-361 1616 0
-1615 1616 0
-361 -1615 0
-362 1617 0
-1616 1617 0
-362 -1616 0
-363 1618 0
-1617 1618 0
-363 -1617 0
-364 1619 0
-1618 1619 0
-364 -1618 0
-365 1620 0
-1619 1620 0
-365 -1619 0
-366 1621 0
-1620 1621 0
-366 -1620 0
-367 1622 0
-1621 1622 0
-367 -1621 0
-368 1623 0
-1622 1623 0
-368 -1622 0
-369 1624 0
-1623 1624 0
-369 -1623 0
-370 1625 0
-1624 1625 0
-370 -1624 0
-371 1626 0
-1625 1626 0
-371 -1625 0
-372 1627 0
-1626 1627 0
-372 -1626 0
-373 1628 0
-1627 1628 0
-373 -1627 0
-374 1629 0
-1628 1629 0
-374 -1628 0
-375 1630 0
-1629 1630 0
-375 -1629 0
-376 1631 0
-1630 1631 0
-376 -1630 0
-377 1632 0
-1631 1632 0
-377 -1631 0
-378 1633 0
-1632 1633 0
-378 -1632 0
-379 1634 0
-1633 1634 0
-379 -1633 0
-380 1635 0
-1634 1635 0
-380 -1634 0
-381 1636 0
-1635 1636 0
-381 -1635 0
-382 1637 0
-1636 1637 0
-382 -1636 0
-383 1638 0
-1637 1638 0
-383 -1637 0
-384 1639 0
-1638 1639 0
-384 -1638 0
-385 1640 0
-1639 1640 0
-385 -1639 0
-386 1641 0
-1640 1641 0
-386 -1640 0
-387 1642 0
-1641 1642 0
-387 -1641 0
-388 1643 0
-1642 1643 0
-388 -1642 0
-389 1644 0
-1643 1644 0
-389 -1643 0
-390 1645 0
-1644 1645 0
-390 -1644 0
-391 1646 0
-1645 1646 0
-391 -1645 0
-392 1647 0
-1646 1647 0
-392 -1646 0
-393 1648 0
-1647 1648 0
-393 -1647 0
-394 1649 0
-1648 1649 0
-394 -1648 0
-395 1650 0
-1649 1650 0
-395 -1649 0
-396 1651 0
-1650 1651 0
-396 -1650 0
-397 1652 0
-1651 1652 0
-397 -1651 0
-398 1653 0
-1652 1653 0
-398 -1652 0
-399 1654 0
-1653 1654 0
-399 -1653 0
-400 1655 0
-1654 1655 0
-400 -1654 0
-401 1656 0
-1655 1656 0
-401 -1655 0
-402 1657 0
-1656 1657 0
-402 -1656 0
-403 1658 0
-1657 1658 0
-403 -1657 0
-404 1659 0
-1658 1659 0
-404 -1658 0
-405 1660 0
-1659 1660 0
-405 -1659 0
-406 1661 0
-1660 1661 0
-406 -1660 0
-407 1662 0
-1661 1662 0
-407 -1661 0
-408 1663 0
-1662 1663 0
-408 -1662 0
-409 1664 0
-1663 1664 0
-409 -1663 0
-410 1665 0
-1664 1665 0
-410 -1664 0
-411 1666 0
-1665 1666 0
-411 -1665 0
-412 1667 0
-1666 1667 0
-412 -1666 0
-413 1668 0
-1667 1668 0
-413 -1667 0
-414 1669 0
-1668 1669 0
-414 -1668 0
-415 1670 0
-1669 1670 0
-415 -1669 0
-416 1671 0
-1670 1671 0
-416 -1670 0
-417 1672 0
-1671 1672 0
-417 -1671 0
-418 1673 0
-1672 1673 0
-418 -1672 0
-419 1674 0
-1673 1674 0
-419 -1673 0
-420 1675 0
-1674 1675 0
-420 -1674 0
-421 1676 0
-1675 1676 0
-421 -1675 0
-422 1677 0
-1676 1677 0
-422 -1676 0
-423 1678 0
-1677 1678 0
-423 -1677 0
-424 1679 0
-1678 1679 0
-424 -1678 0
-425 1680 0
-1679 1680 0
-425 -1679 0
-426 1681 0
-1680 1681 0
-426 -1680 0
-427 1682 0
-1681 1682 0
-427 -1681 0
-428 1683 0
-1682 1683 0
-428 -1682 0
-429 1684 0
-1683 1684 0
-429 -1683 0
-430 1685 0
-1684 1685 0
-430 -1684 0
-431 1686 0
-1685 1686 0
-431 -1685 0
-432 1687 0
-1686 1687 0
-432 -1686 0
-433 1688 0
-1687 1688 0
-433 -1687 0
-434 1689 0
-1688 1689 0
-434 -1688 0
-435 1690 0
-1689 1690 0
-435 -1689 0
-436 1691 0
-1690 1691 0
-436 -1690 0
-437 1692 0
-1691 1692 0
-437 -1691 0
-438 1693 0
-1692 1693 0
-438 -1692 0
-439 1694 0
-1693 1694 0
-439 -1693 0
-440 1695 0
-1694 1695 0
-440 -1694 0
-441 1696 0
-1695 1696 0
-441 -1695 0
-442 1697 0
-1696 1697 0
-442 -1696 0
-443 1698 0
-1697 1698 0
-443 -1697 0
-444 1699 0
-1698 1699 0
-444 -1698 0
-445 1700 0
-1699 1700 0
-445 -1699 0
-446 1701 0
-1700 1701 0
-446 -1700 0
-447 1702 0
-1701 1702 0
-447 -1701 0
-448 1703 0
-1702 1703 0
-448 -1702 0
-449 1704 0
-1703 1704 0
-449 -1703 0
-450 1705 0
-1704 1705 0
-450 -1704 0
-451 1706 0
-1705 1706 0
-451 -1705 0
-452 1707 0
-1706 1707 0
-452 -1706 0
-453 1708 0
-1707 1708 0
-453 -1707 0
-454 1709 0
-1708 1709 0
-454 -1708 0
-455 1710 0
-1709 1710 0
-455 -1709 0
-456 1711 0
-1710 1711 0
-456 -1710 0
-457 1712 0
-1711 1712 0
-457 -1711 0
-458 1713 0
-1712 1713 0
-458 -1712 0
-459 1714 0
-1713 1714 0
-459 -1713 0
-460 1715 0
-1714 1715 0
-460 -1714 0
-461 1716 0
-1715 1716 0
-461 -1715 0
-462 1717 0
-1716 1717 0
-462 -1716 0
-463 1718 0
-1717 1718 0
-463 -1717 0
-464 1719 0
-1718 1719 0
-464 -1718 0
-465 1720 0
-1719 1720 0
-465 -1719 0
-466 1721 0
-1720 1721 0
-466 -1720 0
-467 1722 0
-1721 1722 0
-467 -1721 0
-468 1723 0
-1722 1723 0
-468 -1722 0
-469 1724 0
-1723 1724 0
-469 -1723 0
-470 1725 0
-1724 1725 0
-470 -1724 0
-471 1726 0
-1725 1726 0
-471 -1725 0
-472 1727 0
-1726 1727 0
-472 -1726 0
-473 1728 0
-1727 1728 0
-473 -1727 0
-474 1729 0
-1728 1729 0
-474 -1728 0
-475 1730 0
-1729 1730 0
-475 -1729 0
-476 1731 0
-1730 1731 0
-476 -1730 0
-477 1732 0
-1731 1732 0
-477 -1731 0
-478 1733 0
-1732 1733 0
-478 -1732 0
-479 1734 0
-1733 1734 0
-479 -1733 0
-480 1735 0
-1734 1735 0
-480 -1734 0
-481 1736 0
-1735 1736 0
-481 -1735 0
-482 1737 0
-1736 1737 0
-482 -1736 0
-483 1738 0
-1737 1738 0
-483 -1737 0
-484 1739 0
-1738 1739 0
-484 -1738 0
-485 1740 0
-1739 1740 0
-485 -1739 0
-486 1741 0
-1740 1741 0
-486 -1740 0
-487 1742 0
-1741 1742 0
-487 -1741 0
-488 1743 0
-1742 1743 0
-488 -1742 0
-489 1744 0
-1743 1744 0
-489 -1743 0
-490 1745 0
-1744 1745 0
-490 -1744 0
-491 1746 0
-1745 1746 0
-491 -1745 0
-492 1747 0
-1746 1747 0
-492 -1746 0
-493 1748 0
-1747 1748 0
-493 -1747 0
-494 1749 0
-1748 1749 0
-494 -1748 0
-495 1750 0
-1749 1750 0
-495 -1749 0
-496 1751 0
-1750 1751 0
-496 -1750 0
-497 1752 0
-1751 1752 0
-497 -1751 0
-498 1753 0
-1752 1753 0
-498 -1752 0
-499 1754 0
-1753 1754 0
-499 -1753 0
-500 1755 0
-1754 1755 0
-500 -1754 0
-501 1756 0
-1755 1756 0
-501 -1755 0
-502 1757 0
-1756 1757 0
-502 -1756 0
-503 1758 0
-1757 1758 0
-503 -1757 0
-504 1759 0
-1758 1759 0
-504 -1758 0
-505 1760 0
-1759 1760 0
-505 -1759 0
-506 1761 0
-1760 1761 0
-506 -1760 0
-507 1762 0
-1761 1762 0
-507 -1761 0
-508 1763 0
-1762 1763 0
-508 -1762 0
-509 1764 0
-1763 1764 0
-509 -1763 0
-510 1765 0
-1764 1765 0
-510 -1764 0
-511 1766 0
-1765 1766 0
-511 -1765 0
-512 1767 0
-1766 1767 0
-512 -1766 0
-513 1768 0
-1767 1768 0
-513 -1767 0
-514 1769 0
-1768 1769 0
-514 -1768 0
-515 1770 0
-1769 1770 0
-515 -1769 0
-516 1771 0
-1770 1771 0
-516 -1770 0
-517 1772 0
-1771 1772 0
-517 -1771 0
-518 1773 0
-1772 1773 0
-518 -1772 0
-519 1774 0
-1773 1774 0
-519 -1773 0
-520 1775 0
-1774 1775 0
-520 -1774 0
-521 1776 0
-1775 1776 0
-521 -1775 0
-522 1777 0
-1776 1777 0
-522 -1776 0
-523 1778 0
-1777 1778 0
-523 -1777 0
-524 1779 0
-1778 1779 0
-524 -1778 0
-525 1780 0
-1779 1780 0
-525 -1779 0
-526 1781 0
-1780 1781 0
-526 -1780 0
-527 1782 0
-1781 1782 0
-527 -1781 0
-528 1783 0
-1782 1783 0
-528 -1782 0
-529 1784 0
-1783 1784 0
-529 -1783 0
-530 1785 0
-1784 1785 0
-530 -1784 0
-531 1786 0
-1785 1786 0
-531 -1785 0
-532 1787 0
-1786 1787 0
-532 -1786 0
-533 1788 0
-1787 1788 0
-533 -1787 0
-534 1789 0
-1788 1789 0
-534 -1788 0
-535 1790 0
-1789 1790 0
-535 -1789 0
-536 1791 0
-1790 1791 0
-536 -1790 0
-537 1792 0
-1791 1792 0
-537 -1791 0
-538 1793 0
-1792 1793 0
-538 -1792 0
-539 1794 0
-1793 1794 0
-539 -1793 0
-540 1795 0
-1794 1795 0
-540 -1794 0
-541 1796 0
-1795 1796 0
-541 -1795 0
-542 1797 0
-1796 1797 0
-542 -1796 0
-543 1798 0
-1797 1798 0
-543 -1797 0
-544 1799 0
-1798 1799 0
-544 -1798 0
-545 1800 0
-1799 1800 0
-545 -1799 0
-546 1801 0
-1800 1801 0
-546 -1800 0
-547 1802 0
-1801 1802 0
-547 -1801 0
-548 1803 0
-1802 1803 0
-548 -1802 0
-549 1804 0
-1803 1804 0
-549 -1803 0
-550 1805 0
-1804 1805 0
-550 -1804 0
-551 1806 0
-1805 1806 0
-551 -1805 0
-552 1807 0
-1806 1807 0
-552 -1806 0
-553 1808 0
-1807 1808 0
-553 -1807 0
-554 1809 0
-1808 1809 0
-554 -1808 0
-555 1810 0
-1809 1810 0
-555 -1809 0
-556 1811 0
-1810 1811 0
-556 -1810 0
-557 1812 0
-1811 1812 0
-557 -1811 0
-558 1813 0
-1812 1813 0
-558 -1812 0
-559 1814 0
-1813 1814 0
-559 -1813 0
-560 1815 0
-1814 1815 0
-560 -1814 0
-561 1816 0
-1815 1816 0
-561 -1815 0
-562 1817 0
-1816 1817 0
-562 -1816 0
-563 1818 0
-1817 1818 0
-563 -1817 0
-564 1819 0
-1818 1819 0
-564 -1818 0
-565 1820 0
-1819 1820 0
-565 -1819 0
-566 1821 0
-1820 1821 0
-566 -1820 0
-567 1822 0
-1821 1822 0
-567 -1821 0
-568 1823 0
-1822 1823 0
-568 -1822 0
-569 1824 0
-1823 1824 0
-569 -1823 0
-570 1825 0
-1824 1825 0
-570 -1824 0
-571 1826 0
-1825 1826 0
-571 -1825 0
-572 1827 0
-1826 1827 0
-572 -1826 0
-573 1828 0
-1827 1828 0
-573 -1827 0
-574 1829 0
-1828 1829 0
-574 -1828 0
-575 1830 0
-1829 1830 0
-575 -1829 0
-576 1831 0
-1830 1831 0
-576 -1830 0
-577 1832 0
-1831 1832 0
-577 -1831 0
-578 1833 0
-1832 1833 0
-578 -1832 0
-579 1834 0
-1833 1834 0
-579 -1833 0
-580 1835 0
-1834 1835 0
-580 -1834 0
-581 1836 0
-1835 1836 0
-581 -1835 0
-582 1837 0
-1836 1837 0
-582 -1836 0
-583 1838 0
-1837 1838 0
-583 -1837 0
-584 1839 0
-1838 1839 0
-584 -1838 0
-585 1840 0
-1839 1840 0
-585 -1839 0
-586 1841 0
-1840 1841 0
-586 -1840 0
-587 1842 0
-1841 1842 0
-587 -1841 0
-588 1843 0
-1842 1843 0
-588 -1842 0
-589 1844 0
-1843 1844 0
-589 -1843 0
-590 1845 0
-1844 1845 0
-590 -1844 0
-591 1846 0
-1845 1846 0
-591 -1845 0
-592 1847 0
-1846 1847 0
-592 -1846 0
-593 1848 0
-1847 1848 0
-593 -1847 0
-594 1849 0
-1848 1849 0
-594 -1848 0
-595 1850 0
-1849 1850 0
-595 -1849 0
-596 1851 0
-1850 1851 0
-596 -1850 0
-597 1852 0
-1851 1852 0
-597 -1851 0
-598 1853 0
-1852 1853 0
-598 -1852 0
-599 1854 0
-1853 1854 0
-599 -1853 0
-600 1855 0
-1854 1855 0
-600 -1854 0
-601 1856 0
-1855 1856 0
-601 -1855 0
-602 1857 0
-1856 1857 0
-602 -1856 0
-603 1858 0
-1857 1858 0
-603 -1857 0
-604 1859 0
-1858 1859 0
-604 -1858 0
-605 1860 0
-1859 1860 0
-605 -1859 0
-606 1861 0
-1860 1861 0
-606 -1860 0
-607 1862 0
-1861 1862 0
-607 -1861 0
-608 1863 0
-1862 1863 0
-608 -1862 0
-609 1864 0
-1863 1864 0
-609 -1863 0
-610 1865 0
-1864 1865 0
-610 -1864 0
-611 1866 0
-1865 1866 0
-611 -1865 0
-612 1867 0
-1866 1867 0
-612 -1866 0
-613 1868 0
-1867 1868 0
-613 -1867 0
-614 1869 0
-1868 1869 0
-614 -1868 0
-615 1870 0
-1869 1870 0
-615 -1869 0
-616 1871 0
-1870 1871 0
-616 -1870 0
-617 1872 0
-1871 1872 0
-617 -1871 0
-618 1873 0
-1872 1873 0
-618 -1872 0
-619 1874 0
-1873 1874 0
-619 -1873 0
-620 1875 0
-1874 1875 0
-620 -1874 0
-621 1876 0
-1875 1876 0
-621 -1875 0
-622 1877 0
-1876 1877 0
-622 -1876 0
-623 1878 0
-1877 1878 0
-623 -1877 0
-624 1879 0
-1878 1879 0
-624 -1878 0
-625 1880 0
-1879 1880 0
-625 -1879 0
-626 1881 0
-1880 1881 0
-626 -1880 0
-627 1882 0
-1881 1882 0
-627 -1881 0
-628 1883 0
-1882 1883 0
-628 -1882 0
-629 1884 0
-1883 1884 0
-629 -1883 0
-630 1885 0
-1884 1885 0
-630 -1884 0
-631 1886 0
-1885 1886 0
-631 -1885 0
-632 1887 0
-1886 1887 0
-632 -1886 0
-633 1888 0
-1887 1888 0
-633 -1887 0
-634 1889 0
-1888 1889 0
-634 -1888 0
-635 1890 0
-1889 1890 0
-635 -1889 0
-636 1891 0
-1890 1891 0
-636 -1890 0
-637 1892 0
-1891 1892 0
-637 -1891 0
-638 1893 0
-1892 1893 0
-638 -1892 0
-639 1894 0
-1893 1894 0
-639 -1893 0
-640 1895 0
-1894 1895 0
-640 -1894 0
-641 1896 0
-1895 1896 0
-641 -1895 0
-642 1897 0
-1896 1897 0
-642 -1896 0
-643 1898 0
-1897 1898 0
-643 -1897 0
-644 1899 0
-1898 1899 0
-644 -1898 0
-645 1900 0
-1899 1900 0
-645 -1899 0
-646 1901 0
-1900 1901 0
-646 -1900 0
-647 1902 0
-1901 1902 0
-647 -1901 0
-648 1903 0
-1902 1903 0
-648 -1902 0
-649 1904 0
-1903 1904 0
-649 -1903 0
-650 1905 0
-1904 1905 0
-650 -1904 0
-651 1906 0
-1905 1906 0
-651 -1905 0
-652 1907 0
-1906 1907 0
-652 -1906 0
-653 1908 0
-1907 1908 0
-653 -1907 0
-654 1909 0
-1908 1909 0
-654 -1908 0
-655 1910 0
-1909 1910 0
-655 -1909 0
-656 1911 0
-1910 1911 0
-656 -1910 0
-657 1912 0
-1911 1912 0
-657 -1911 0
-658 1913 0
-1912 1913 0
-658 -1912 0
-659 1914 0
-1913 1914 0
-659 -1913 0
-660 1915 0
-1914 1915 0
-660 -1914 0
-661 1916 0
-1915 1916 0
-661 -1915 0
-662 1917 0
-1916 1917 0
-662 -1916 0
-663 1918 0
-1917 1918 0
-663 -1917 0
-664 1919 0
-1918 1919 0
-664 -1918 0
-665 1920 0
-1919 1920 0
-665 -1919 0
-666 1921 0
-1920 1921 0
-666 -1920 0
-667 1922 0
-1921 1922 0
-667 -1921 0
-668 1923 0
-1922 1923 0
-668 -1922 0
-669 1924 0
-1923 1924 0
-669 -1923 0
-670 1925 0
-1924 1925 0
-670 -1924 0
-671 1926 0
-1925 1926 0
-671 -1925 0
-672 1927 0
-1926 1927 0
-672 -1926 0
-673 1928 0
-1927 1928 0
-673 -1927 0
-674 1929 0
-1928 1929 0
-674 -1928 0
-675 1930 0
-1929 1930 0
-675 -1929 0
-676 1931 0
-1930 1931 0
-676 -1930 0
-677 1932 0
-1931 1932 0
-677 -1931 0
-678 1933 0
-1932 1933 0
-678 -1932 0
-679 1934 0
-1933 1934 0
-679 -1933 0
-680 1935 0
-1934 1935 0
-680 -1934 0
-681 1936 0
-1935 1936 0
-681 -1935 0
-682 1937 0
-1936 1937 0
-682 -1936 0
-683 1938 0
-1937 1938 0
-683 -1937 0
-684 1939 0
-1938 1939 0
-684 -1938 0
-685 1940 0
-1939 1940 0
-685 -1939 0
-686 1941 0
-1940 1941 0
-686 -1940 0
-687 1942 0
-1941 1942 0
-687 -1941 0
-688 1943 0
-1942 1943 0
-688 -1942 0
-689 1944 0
-1943 1944 0
-689 -1943 0
-690 1945 0
-1944 1945 0
-690 -1944 0
-691 1946 0
-1945 1946 0
-691 -1945 0
-692 1947 0
-1946 1947 0
-692 -1946 0
-693 1948 0
-1947 1948 0
-693 -1947 0
-694 1949 0
-1948 1949 0
-694 -1948 0
-695 1950 0
-1949 1950 0
-695 -1949 0
-696 1951 0
-1950 1951 0
-696 -1950 0
-697 1952 0
-1951 1952 0
-697 -1951 0
-698 1953 0
-1952 1953 0
-698 -1952 0
-699 1954 0
-1953 1954 0
-699 -1953 0
-700 1955 0
-1954 1955 0
-700 -1954 0
-701 1956 0
-1955 1956 0
-701 -1955 0
-702 1957 0
-1956 1957 0
-702 -1956 0
-703 1958 0
-1957 1958 0
-703 -1957 0
-704 1959 0
-1958 1959 0
-704 -1958 0
-705 1960 0
-1959 1960 0
-705 -1959 0
-706 1961 0
-1960 1961 0
-706 -1960 0
-707 1962 0
-1961 1962 0
-707 -1961 0
-708 1963 0
-1962 1963 0
-708 -1962 0
-709 1964 0
-1963 1964 0
-709 -1963 0
-710 1965 0
-1964 1965 0
-710 -1964 0
-711 1966 0
-1965 1966 0
-711 -1965 0
-712 1967 0
-1966 1967 0
-712 -1966 0
-713 1968 0
-1967 1968 0
-713 -1967 0
-714 1969 0
-1968 1969 0
-714 -1968 0
-715 1970 0
-1969 1970 0
-715 -1969 0
-716 1971 0
-1970 1971 0
-716 -1970 0
-717 1972 0
-1971 1972 0
-717 -1971 0
-718 1973 0
-1972 1973 0
-718 -1972 0
-719 1974 0
-1973 1974 0
-719 -1973 0
-720 1975 0
-1974 1975 0
-720 -1974 0
-721 1976 0
-1975 1976 0
-721 -1975 0
-722 1977 0
-1976 1977 0
-722 -1976 0
-723 1978 0
-1977 1978 0
-723 -1977 0
-724 1979 0
-1978 1979 0
-724 -1978 0
-725 1980 0
-1979 1980 0
-725 -1979 0
-726 1981 0
-1980 1981 0
-726 -1980 0
-727 1982 0
-1981 1982 0
-727 -1981 0
-728 1983 0
-1982 1983 0
-728 -1982 0
-729 1984 0
-1983 1984 0
-729 -1983 0
-730 1985 0
-1984 1985 0
-730 -1984 0
-731 1986 0
-1985 1986 0
-731 -1985 0
-732 1987 0
-1986 1987 0
-732 -1986 0
-733 1988 0
-1987 1988 0
-733 -1987 0
-734 1989 0
-1988 1989 0
-734 -1988 0
-735 1990 0
-1989 1990 0
-735 -1989 0
-736 1991 0
-1990 1991 0
-736 -1990 0
-737 1992 0
-1991 1992 0
-737 -1991 0
-738 1993 0
-1992 1993 0
-738 -1992 0
-739 1994 0
-1993 1994 0
-739 -1993 0
-740 1995 0
-1994 1995 0
-740 -1994 0
-741 1996 0
-1995 1996 0
-741 -1995 0
-742 1997 0
-1996 1997 0
-742 -1996 0
-743 1998 0
-1997 1998 0
-743 -1997 0
-744 1999 0
-1998 1999 0
-744 -1998 0
-745 2000 0
-1999 2000 0
-745 -1999 0
-746 2001 0
-2000 2001 0
-746 -2000 0
-747 2002 0
-2001 2002 0
-747 -2001 0
-748 2003 0
-2002 2003 0
-748 -2002 0
-749 2004 0
-2003 2004 0
-749 -2003 0
-750 2005 0
-2004 2005 0
-750 -2004 0
-751 2006 0
-2005 2006 0
-751 -2005 0
-752 2007 0
-2006 2007 0
-752 -2006 0
-753 2008 0
-2007 2008 0
-753 -2007 0
-754 2009 0
-2008 2009 0
-754 -2008 0
-755 2010 0
-2009 2010 0
-755 -2009 0
-756 2011 0
-2010 2011 0
-756 -2010 0
-757 2012 0
-2011 2012 0
-757 -2011 0
-758 2013 0
-2012 2013 0
-758 -2012 0
-759 2014 0
-2013 2014 0
-759 -2013 0
-760 2015 0
-2014 2015 0
-760 -2014 0
-761 2016 0
-2015 2016 0
-761 -2015 0
-762 2017 0
-2016 2017 0
-762 -2016 0
-763 2018 0
-2017 2018 0
-763 -2017 0
-764 2019 0
-2018 2019 0
-764 -2018 0
-765 2020 0
-2019 2020 0
-765 -2019 0
-766 2021 0
-2020 2021 0
-766 -2020 0
-767 2022 0
-2021 2022 0
-767 -2021 0
-768 2023 0
-2022 2023 0
-768 -2022 0
-769 2024 0
-2023 2024 0
-769 -2023 0
-770 2025 0
-2024 2025 0
-770 -2024 0
-771 2026 0
-2025 2026 0
-771 -2025 0
-772 2027 0
-2026 2027 0
-772 -2026 0
-773 2028 0
-2027 2028 0
-773 -2027 0
-774 2029 0
-2028 2029 0
-774 -2028 0
-775 2030 0
-2029 2030 0
-775 -2029 0
-776 2031 0
-2030 2031 0
-776 -2030 0
-777 2032 0
-2031 2032 0
-777 -2031 0
-778 2033 0
-2032 2033 0
-778 -2032 0
-779 2034 0
-2033 2034 0
-779 -2033 0
-780 2035 0
-2034 2035 0
-780 -2034 0
-781 2036 0
-2035 2036 0
-781 -2035 0
-782 2037 0
-2036 2037 0
-782 -2036 0
-783 2038 0
-2037 2038 0
-783 -2037 0
-784 2039 0
-2038 2039 0
-784 -2038 0
-785 2040 0
-2039 2040 0
-785 -2039 0
-786 2041 0
-2040 2041 0
-786 -2040 0
-787 2042 0
-2041 2042 0
-787 -2041 0
-788 2043 0
-2042 2043 0
-788 -2042 0
-789 2044 0
-2043 2044 0
-789 -2043 0
-790 2045 0
-2044 2045 0
-790 -2044 0
-791 2046 0
-2045 2046 0
-791 -2045 0
-792 2047 0
-2046 2047 0
-792 -2046 0
-793 2048 0
-2047 2048 0
-793 -2047 0
-794 2049 0
-2048 2049 0
-794 -2048 0
-795 2050 0
-2049 2050 0
-795 -2049 0
-796 2051 0
-2050 2051 0
-796 -2050 0
-797 2052 0
-2051 2052 0
-797 -2051 0
-798 2053 0
-2052 2053 0
-798 -2052 0
-799 2054 0
-2053 2054 0
-799 -2053 0
-800 2055 0
-2054 2055 0
-800 -2054 0
-801 2056 0
-2055 2056 0
-801 -2055 0
-802 2057 0
-2056 2057 0
-802 -2056 0
-803 2058 0
-2057 2058 0
-803 -2057 0
-804 2059 0
-2058 2059 0
-804 -2058 0
-805 2060 0
-2059 2060 0
-805 -2059 0
-806 2061 0
-2060 2061 0
-806 -2060 0
-807 2062 0
-2061 2062 0
-807 -2061 0
-808 2063 0
-2062 2063 0
-808 -2062 0
-809 2064 0
-2063 2064 0
-809 -2063 0
-810 2065 0
-2064 2065 0
-810 -2064 0
-811 2066 0
-2065 2066 0
-811 -2065 0
-812 2067 0
-2066 2067 0
-812 -2066 0
-813 2068 0
-2067 2068 0
-813 -2067 0
-814 2069 0
-2068 2069 0
-814 -2068 0
-815 2070 0
-2069 2070 0
-815 -2069 0
-816 2071 0
-2070 2071 0
-816 -2070 0
-817 2072 0
-2071 2072 0
-817 -2071 0
-818 2073 0
-2072 2073 0
-818 -2072 0
-819 2074 0
-2073 2074 0
-819 -2073 0
-820 2075 0
-2074 2075 0
-820 -2074 0
-821 2076 0
-2075 2076 0
-821 -2075 0
-822 2077 0
-2076 2077 0
-822 -2076 0
-823 2078 0
-2077 2078 0
-823 -2077 0
-824 2079 0
-2078 2079 0
-824 -2078 0
-825 2080 0
-2079 2080 0
-825 -2079 0
-826 2081 0
-2080 2081 0
-826 -2080 0
-827 2082 0
-2081 2082 0
-827 -2081 0
-828 2083 0
-2082 2083 0
-828 -2082 0
-829 2084 0
-2083 2084 0
-829 -2083 0
-830 2085 0
-2084 2085 0
-830 -2084 0
-831 2086 0
-2085 2086 0
-831 -2085 0
-832 2087 0
-2086 2087 0
-832 -2086 0
-833 2088 0
-2087 2088 0
-833 -2087 0
-834 2089 0
-2088 2089 0
-834 -2088 0
-835 2090 0
-2089 2090 0
-835 -2089 0
-836 2091 0
-2090 2091 0
-836 -2090 0
-837 2092 0
-2091 2092 0
-837 -2091 0
-838 2093 0
-2092 2093 0
-838 -2092 0
-839 2094 0
-2093 2094 0
-839 -2093 0
-840 2095 0
-2094 2095 0
-840 -2094 0
-841 2096 0
-2095 2096 0
-841 -2095 0
-842 2097 0
-2096 2097 0
-842 -2096 0
-843 2098 0
-2097 2098 0
-843 -2097 0
-844 2099 0
-2098 2099 0
-844 -2098 0
-845 2100 0
-2099 2100 0
-845 -2099 0
-846 2101 0
-2100 2101 0
-846 -2100 0
-847 2102 0
-2101 2102 0
-847 -2101 0
-848 2103 0
-2102 2103 0
-848 -2102 0
-849 2104 0
-2103 2104 0
-849 -2103 0
-850 2105 0
-2104 2105 0
-850 -2104 0
-851 2106 0
-2105 2106 0
-851 -2105 0
-852 2107 0
-2106 2107 0
-852 -2106 0
-853 2108 0
-2107 2108 0
-853 -2107 0
-854 2109 0
-2108 2109 0
-854 -2108 0
-855 2110 0
-2109 2110 0
-855 -2109 0
-856 2111 0
-2110 2111 0
-856 -2110 0
-857 2112 0
-2111 2112 0
-857 -2111 0
-858 2113 0
-2112 2113 0
-858 -2112 0
-859 2114 0
-2113 2114 0
-859 -2113 0
-860 2115 0
-2114 2115 0
-860 -2114 0
-861 2116 0
-2115 2116 0
-861 -2115 0
-862 2117 0
-2116 2117 0
-862 -2116 0
-863 2118 0
-2117 2118 0
-863 -2117 0
-864 2119 0
-2118 2119 0
-864 -2118 0
-865 2120 0
-2119 2120 0
-865 -2119 0
-866 2121 0
-2120 2121 0
-866 -2120 0
-867 2122 0
-2121 2122 0
-867 -2121 0
-868 2123 0
-2122 2123 0
-868 -2122 0
-869 2124 0
-2123 2124 0
-869 -2123 0
-870 2125 0
-2124 2125 0
-870 -2124 0
-871 2126 0
-2125 2126 0
-871 -2125 0
-872 2127 0
-2126 2127 0
-872 -2126 0
-873 2128 0
-2127 2128 0
-873 -2127 0
-874 2129 0
-2128 2129 0
-874 -2128 0
-875 2130 0
-2129 2130 0
-875 -2129 0
-876 2131 0
-2130 2131 0
-876 -2130 0
-877 2132 0
-2131 2132 0
-877 -2131 0
-878 2133 0
-2132 2133 0
-878 -2132 0
-879 2134 0
-2133 2134 0
-879 -2133 0
-880 2135 0
-2134 2135 0
-880 -2134 0
-881 2136 0
-2135 2136 0
-881 -2135 0
-882 2137 0
-2136 2137 0
-882 -2136 0
-883 2138 0
-2137 2138 0
-883 -2137 0
-884 2139 0
-2138 2139 0
-884 -2138 0
-885 2140 0
-2139 2140 0
-885 -2139 0
-886 2141 0
-2140 2141 0
-886 -2140 0
-887 2142 0
-2141 2142 0
-887 -2141 0
-888 2143 0
-2142 2143 0
-888 -2142 0
-889 2144 0
-2143 2144 0
-889 -2143 0
-890 2145 0
-2144 2145 0
-890 -2144 0
-891 2146 0
-2145 2146 0
-891 -2145 0
-892 2147 0
-2146 2147 0
-892 -2146 0
-893 2148 0
-2147 2148 0
-893 -2147 0
-894 2149 0
-2148 2149 0
-894 -2148 0
-895 2150 0
-2149 2150 0
-895 -2149 0
-896 2151 0
-2150 2151 0
-896 -2150 0
-897 2152 0
-2151 2152 0
-897 -2151 0
-898 2153 0
-2152 2153 0
-898 -2152 0
-899 2154 0
-2153 2154 0
-899 -2153 0
-900 2155 0
-2154 2155 0
-900 -2154 0
-901 2156 0
-2155 2156 0
-901 -2155 0
-902 2157 0
-2156 2157 0
-902 -2156 0
-903 2158 0
-2157 2158 0
-903 -2157 0
-904 2159 0
-2158 2159 0
-904 -2158 0
-905 2160 0
-2159 2160 0
-905 -2159 0
-906 2161 0
-2160 2161 0
-906 -2160 0
-907 2162 0
-2161 2162 0
-907 -2161 0
-908 2163 0
-2162 2163 0
-908 -2162 0
-909 2164 0
-2163 2164 0
-909 -2163 0
-910 2165 0
-2164 2165 0
-910 -2164 0
-911 2166 0
-2165 2166 0
-911 -2165 0
-912 2167 0
-2166 2167 0
-912 -2166 0
-913 2168 0
-2167 2168 0
-913 -2167 0
-914 2169 0
-2168 2169 0
-914 -2168 0
-915 2170 0
-2169 2170 0
-915 -2169 0
-916 2171 0
-2170 2171 0
-916 -2170 0
-917 2172 0
-2171 2172 0
-917 -2171 0
-918 2173 0
-2172 2173 0
-918 -2172 0
-919 2174 0
-2173 2174 0
-919 -2173 0
-920 2175 0
-2174 2175 0
-920 -2174 0
-921 2176 0
-2175 2176 0
-921 -2175 0
-922 2177 0
-2176 2177 0
-922 -2176 0
-923 2178 0
-2177 2178 0
-923 -2177 0
-924 2179 0
-2178 2179 0
-924 -2178 0
-925 2180 0
-2179 2180 0
-925 -2179 0
-926 2181 0
-2180 2181 0
-926 -2180 0
-927 2182 0
-2181 2182 0
-927 -2181 0
-928 2183 0
-2182 2183 0
-928 -2182 0
-929 2184 0
-2183 2184 0
-929 -2183 0
-930 2185 0
-2184 2185 0
-930 -2184 0
-931 2186 0
-2185 2186 0
-931 -2185 0
-932 2187 0
-2186 2187 0
-932 -2186 0
-933 2188 0
-2187 2188 0
-933 -2187 0
-934 2189 0
-2188 2189 0
-934 -2188 0
-935 2190 0
-2189 2190 0
-935 -2189 0
-936 2191 0
-2190 2191 0
-936 -2190 0
-937 2192 0
-2191 2192 0
-937 -2191 0
-938 2193 0
-2192 2193 0
-938 -2192 0
-939 2194 0
-2193 2194 0
-939 -2193 0
-940 2195 0
-2194 2195 0
-940 -2194 0
-941 2196 0
-2195 2196 0
-941 -2195 0
-942 2197 0
-2196 2197 0
-942 -2196 0
-943 2198 0
-2197 2198 0
-943 -2197 0
-944 2199 0
-2198 2199 0
-944 -2198 0
-945 2200 0
-2199 2200 0
-945 -2199 0
-946 2201 0
-2200 2201 0
-946 -2200 0
-947 2202 0
-2201 2202 0
-947 -2201 0
-948 2203 0
-2202 2203 0
-948 -2202 0
-949 2204 0
-2203 2204 0
-949 -2203 0
-950 2205 0
-2204 2205 0
-950 -2204 0
-951 2206 0
-2205 2206 0
-951 -2205 0
-952 2207 0
-2206 2207 0
-952 -2206 0
-953 2208 0
-2207 2208 0
-953 -2207 0
-954 2209 0
-2208 2209 0
-954 -2208 0
-955 2210 0
-2209 2210 0
-955 -2209 0
-956 2211 0
-2210 2211 0
-956 -2210 0
-957 2212 0
-2211 2212 0
-957 -2211 0
-958 2213 0
-2212 2213 0
-958 -2212 0
-959 2214 0
-2213 2214 0
-959 -2213 0
-960 2215 0
-2214 2215 0
-960 -2214 0
-961 2216 0
-2215 2216 0
-961 -2215 0
-962 2217 0
-2216 2217 0
-962 -2216 0
-963 2218 0
-2217 2218 0
-963 -2217 0
-964 2219 0
-2218 2219 0
-964 -2218 0
-965 2220 0
-2219 2220 0
-965 -2219 0
-966 2221 0
-2220 2221 0
-966 -2220 0
-967 2222 0
-2221 2222 0
-967 -2221 0
-968 2223 0
-2222 2223 0
-968 -2222 0
-969 2224 0
-2223 2224 0
-969 -2223 0
-970 2225 0
-2224 2225 0
-970 -2224 0
-971 2226 0
-2225 2226 0
-971 -2225 0
-972 2227 0
-2226 2227 0
-972 -2226 0
-973 2228 0
-2227 2228 0
-973 -2227 0
-974 2229 0
-2228 2229 0
-974 -2228 0
-975 2230 0
-2229 2230 0
-975 -2229 0
-976 2231 0
-2230 2231 0
-976 -2230 0
-977 2232 0
-2231 2232 0
-977 -2231 0
-978 2233 0
-2232 2233 0
-978 -2232 0
-979 2234 0
-2233 2234 0
-979 -2233 0
-980 2235 0
-2234 2235 0
-980 -2234 0
-981 2236 0
-2235 2236 0
-981 -2235 0
-982 2237 0
-2236 2237 0
-982 -2236 0
-983 2238 0
-2237 2238 0
-983 -2237 0
-984 2239 0
-2238 2239 0
-984 -2238 0
-985 2240 0
-2239 2240 0
-985 -2239 0
-986 2241 0
-2240 2241 0
-986 -2240 0
-987 2242 0
-2241 2242 0
-987 -2241 0
-988 2243 0
-2242 2243 0
-988 -2242 0
-989 2244 0
-2243 2244 0
-989 -2243 0
-990 2245 0
-2244 2245 0
-990 -2244 0
-991 2246 0
-2245 2246 0
-991 -2245 0
-992 2247 0
-2246 2247 0
-992 -2246 0
-993 2248 0
-2247 2248 0
-993 -2247 0
-994 2249 0
-2248 2249 0
-994 -2248 0
-995 2250 0
-2249 2250 0
-995 -2249 0
-996 2251 0
-2250 2251 0
-996 -2250 0
-997 2252 0
-2251 2252 0
-997 -2251 0
-998 2253 0
-2252 2253 0
-998 -2252 0
-999 2254 0
-2253 2254 0
-999 -2253 0
-1000 2255 0
-2254 2255 0
-1000 -2254 0
-1001 2256 0
-2255 2256 0
-1001 -2255 0
-1002 2257 0
-2256 2257 0
-1002 -2256 0
-1003 2258 0
-2257 2258 0
-1003 -2257 0
-1004 2259 0
-2258 2259 0
-1004 -2258 0
-1005 2260 0
-2259 2260 0
-1005 -2259 0
-1006 2261 0
-2260 2261 0
-1006 -2260 0
-1007 2262 0
-2261 2262 0
-1007 -2261 0
-1008 2263 0
-2262 2263 0
-1008 -2262 0
-1009 2264 0
-2263 2264 0
-1009 -2263 0
-1010 2265 0
-2264 2265 0
-1010 -2264 0
-1011 2266 0
-2265 2266 0
-1011 -2265 0
-1012 2267 0
-2266 2267 0
-1012 -2266 0
-1013 2268 0
-2267 2268 0
-1013 -2267 0
-1014 2269 0
-2268 2269 0
-1014 -2268 0
-1015 2270 0
-2269 2270 0
-1015 -2269 0
-1016 2271 0
-2270 2271 0
-1016 -2270 0
-1017 2272 0
-2271 2272 0
-1017 -2271 0
-1018 2273 0
-2272 2273 0
-1018 -2272 0
-1019 2274 0
-2273 2274 0
-1019 -2273 0
-1020 2275 0
-2274 2275 0
-1020 -2274 0
-1021 2276 0
-2275 2276 0
-1021 -2275 0
-1022 2277 0
-2276 2277 0
-1022 -2276 0
-1023 2278 0
-2277 2278 0
-1023 -2277 0
-1024 2279 0
-2278 2279 0
-1024 -2278 0
-1025 2280 0
-2279 2280 0
-1025 -2279 0
-1026 2281 0
-2280 2281 0
-1026 -2280 0
-1027 2282 0
-2281 2282 0
-1027 -2281 0
-1028 2283 0
-2282 2283 0
-1028 -2282 0
-1029 2284 0
-2283 2284 0
-1029 -2283 0
-1030 2285 0
-2284 2285 0
-1030 -2284 0
-1031 2286 0
-2285 2286 0
-1031 -2285 0
-1032 2287 0
-2286 2287 0
-1032 -2286 0
-1033 2288 0
-2287 2288 0
-1033 -2287 0
-1034 2289 0
-2288 2289 0
-1034 -2288 0
-1035 2290 0
-2289 2290 0
-1035 -2289 0
-1036 2291 0
-2290 2291 0
-1036 -2290 0
-1037 2292 0
-2291 2292 0
-1037 -2291 0
-1038 2293 0
-2292 2293 0
-1038 -2292 0
-1039 2294 0
-2293 2294 0
-1039 -2293 0
-1040 2295 0
-2294 2295 0
-1040 -2294 0
-1041 2296 0
-2295 2296 0
-1041 -2295 0
-1042 2297 0
-2296 2297 0
-1042 -2296 0
-1043 2298 0
-2297 2298 0
-1043 -2297 0
-1044 2299 0
-2298 2299 0
-1044 -2298 0
-1045 2300 0
-2299 2300 0
-1045 -2299 0
-1046 2301 0
-2300 2301 0
-1046 -2300 0
-1047 2302 0
-2301 2302 0
-1047 -2301 0
-1048 2303 0
-2302 2303 0
-1048 -2302 0
-1049 2304 0
-2303 2304 0
-1049 -2303 0
-1050 2305 0
-2304 2305 0
-1050 -2304 0
-1051 2306 0
-2305 2306 0
-1051 -2305 0
-1052 2307 0
-2306 2307 0
-1052 -2306 0
-1053 2308 0
-2307 2308 0
-1053 -2307 0
-1054 2309 0
-2308 2309 0
-1054 -2308 0
-1055 2310 0
-2309 2310 0
-1055 -2309 0
-1056 2311 0
-2310 2311 0
-1056 -2310 0
-1057 2312 0
-2311 2312 0
-1057 -2311 0
-1058 2313 0
-2312 2313 0
-1058 -2312 0
-1059 2314 0
-2313 2314 0
-1059 -2313 0
-1060 2315 0
-2314 2315 0
-1060 -2314 0
-1061 2316 0
-2315 2316 0
-1061 -2315 0
-1062 2317 0
-2316 2317 0
-1062 -2316 0
-1063 2318 0
-2317 2318 0
-1063 -2317 0
-1064 2319 0
-2318 2319 0
-1064 -2318 0
-1065 2320 0
-2319 2320 0
-1065 -2319 0
-1066 2321 0
-2320 2321 0
-1066 -2320 0
-1067 2322 0
-2321 2322 0
-1067 -2321 0
-1068 2323 0
-2322 2323 0
-1068 -2322 0
-1069 2324 0
-2323 2324 0
-1069 -2323 0
-1070 2325 0
-2324 2325 0
-1070 -2324 0
-1071 2326 0
-2325 2326 0
-1071 -2325 0
-1072 2327 0
-2326 2327 0
-1072 -2326 0
-1073 2328 0
-2327 2328 0
-1073 -2327 0
-1074 2329 0
-2328 2329 0
-1074 -2328 0
-1075 2330 0
-2329 2330 0
-1075 -2329 0
-1076 2331 0
-2330 2331 0
-1076 -2330 0
-1077 2332 0
-2331 2332 0
-1077 -2331 0
-1078 2333 0
-2332 2333 0
-1078 -2332 0
-1079 2334 0
-2333 2334 0
-1079 -2333 0
-1080 2335 0
-2334 2335 0
-1080 -2334 0
-1081 2336 0
-2335 2336 0
-1081 -2335 0
-1082 2337 0
-2336 2337 0
-1082 -2336 0
-1083 2338 0
-2337 2338 0
-1083 -2337 0
-1084 2339 0
-2338 2339 0
-1084 -2338 0
-1085 2340 0
-2339 2340 0
-1085 -2339 0
-1086 2341 0
-2340 2341 0
-1086 -2340 0
-1087 2342 0
-2341 2342 0
-1087 -2341 0
-1088 2343 0
-2342 2343 0
-1088 -2342 0
-1089 2344 0
-2343 2344 0
-1089 -2343 0
-1090 2345 0
-2344 2345 0
-1090 -2344 0
-1091 2346 0
-2345 2346 0
-1091 -2345 0
-1092 2347 0
-2346 2347 0
-1092 -2346 0
-1093 2348 0
-2347 2348 0
-1093 -2347 0
-1094 2349 0
-2348 2349 0
-1094 -2348 0
-1095 2350 0
-2349 2350 0
-1095 -2349 0
-1096 2351 0
-2350 2351 0
-1096 -2350 0
-1097 2352 0
-2351 2352 0
-1097 -2351 0
-1098 2353 0
-2352 2353 0
-1098 -2352 0
-1099 2354 0
-2353 2354 0
-1099 -2353 0
-1100 2355 0
-2354 2355 0
-1100 -2354 0
-1101 2356 0
-2355 2356 0
-1101 -2355 0
-1102 2357 0
-2356 2357 0
-1102 -2356 0
-1103 2358 0
-2357 2358 0
-1103 -2357 0
-1104 2359 0
-2358 2359 0
-1104 -2358 0
-1105 2360 0
-2359 2360 0
-1105 -2359 0
-1106 2361 0
-2360 2361 0
-1106 -2360 0
-1107 2362 0
-2361 2362 0
-1107 -2361 0
-1108 2363 0
-2362 2363 0
-1108 -2362 0
-1109 2364 0
-2363 2364 0
-1109 -2363 0
-1110 2365 0
-2364 2365 0
-1110 -2364 0
-1111 2366 0
-2365 2366 0
-1111 -2365 0
-1112 2367 0
-2366 2367 0
-1112 -2366 0
-1113 2368 0
-2367 2368 0
-1113 -2367 0
-1114 2369 0
-2368 2369 0
-1114 -2368 0
-1115 2370 0
-2369 2370 0
-1115 -2369 0
-1116 2371 0
-2370 2371 0
-1116 -2370 0
-1117 2372 0
-2371 2372 0
-1117 -2371 0
-1118 2373 0
-2372 2373 0
-1118 -2372 0
-1119 2374 0
-2373 2374 0
-1119 -2373 0
-1120 2375 0
-2374 2375 0
-1120 -2374 0
-1121 2376 0
-2375 2376 0
-1121 -2375 0
-1122 2377 0
-2376 2377 0
-1122 -2376 0
-1123 2378 0
-2377 2378 0
-1123 -2377 0
-1124 2379 0
-2378 2379 0
-1124 -2378 0
-1125 2380 0
-2379 2380 0
-1125 -2379 0
-1126 2381 0
-2380 2381 0
-1126 -2380 0
-1127 2382 0
-2381 2382 0
-1127 -2381 0
-1128 2383 0
-2382 2383 0
-1128 -2382 0
-1129 2384 0
-2383 2384 0
-1129 -2383 0
-1130 2385 0
-2384 2385 0
-1130 -2384 0
-1131 2386 0
-2385 2386 0
-1131 -2385 0
-1132 2387 0
-2386 2387 0
-1132 -2386 0
-1133 2388 0
-2387 2388 0
-1133 -2387 0
-1134 2389 0
-2388 2389 0
-1134 -2388 0
-1135 2390 0
-2389 2390 0
-1135 -2389 0
-1136 2391 0
-2390 2391 0
-1136 -2390 0
-1137 2392 0
-2391 2392 0
-1137 -2391 0
-1138 2393 0
-2392 2393 0
-1138 -2392 0
-1139 2394 0
-2393 2394 0
-1139 -2393 0
-1140 2395 0
-2394 2395 0
-1140 -2394 0
-1141 2396 0
-2395 2396 0
-1141 -2395 0
-1142 2397 0
-2396 2397 0
-1142 -2396 0
-1143 2398 0
-2397 2398 0
-1143 -2397 0
-1144 2399 0
-2398 2399 0
-1144 -2398 0
-1145 2400 0
-2399 2400 0
-1145 -2399 0
-1146 2401 0
-2400 2401 0
-1146 -2400 0
-1147 2402 0
-2401 2402 0
-1147 -2401 0
-1148 2403 0
-2402 2403 0
-1148 -2402 0
-1149 2404 0
-2403 2404 0
-1149 -2403 0
-1150 2405 0
-2404 2405 0
-1150 -2404 0
-1151 2406 0
-2405 2406 0
-1151 -2405 0
-1152 2407 0
-2406 2407 0
-1152 -2406 0
-1153 2408 0
-2407 2408 0
-1153 -2407 0
-1154 2409 0
-2408 2409 0
-1154 -2408 0
-1155 2410 0
-2409 2410 0
-1155 -2409 0
-1156 2411 0
-2410 2411 0
-1156 -2410 0
-1157 2412 0
-2411 2412 0
-1157 -2411 0
-1158 2413 0
-2412 2413 0
-1158 -2412 0
-1159 2414 0
-2413 2414 0
-1159 -2413 0
-1160 2415 0
-2414 2415 0
-1160 -2414 0
-1161 2416 0
-2415 2416 0
-1161 -2415 0
-1162 2417 0
-2416 2417 0
-1162 -2416 0
-1163 2418 0
-2417 2418 0
-1163 -2417 0
-1164 2419 0
-2418 2419 0
-1164 -2418 0
-1165 2420 0
-2419 2420 0
-1165 -2419 0
-1166 2421 0
-2420 2421 0
-1166 -2420 0
-1167 2422 0
-2421 2422 0
-1167 -2421 0
-1168 2423 0
-2422 2423 0
-1168 -2422 0
-1169 2424 0
-2423 2424 0
-1169 -2423 0
-1170 2425 0
-2424 2425 0
-1170 -2424 0
-1171 2426 0
-2425 2426 0
-1171 -2425 0
-1172 2427 0
-2426 2427 0
-1172 -2426 0
-1173 2428 0
-2427 2428 0
-1173 -2427 0
-1174 2429 0
-2428 2429 0
-1174 -2428 0
-1175 2430 0
-2429 2430 0
-1175 -2429 0
-1176 2431 0
-2430 2431 0
-1176 -2430 0
-1177 2432 0
-2431 2432 0
-1177 -2431 0
-1178 2433 0
-2432 2433 0
-1178 -2432 0
-1179 2434 0
-2433 2434 0
-1179 -2433 0
-1180 2435 0
-2434 2435 0
-1180 -2434 0
-1181 2436 0
-2435 2436 0
-1181 -2435 0
-1182 2437 0
-2436 2437 0
-1182 -2436 0
-1183 2438 0
-2437 2438 0
-1183 -2437 0
-1184 2439 0
-2438 2439 0
-1184 -2438 0
-1185 2440 0
-2439 2440 0
-1185 -2439 0
-1186 2441 0
-2440 2441 0
-1186 -2440 0
-1187 2442 0
-2441 2442 0
-1187 -2441 0
-1188 2443 0
-2442 2443 0
-1188 -2442 0
-1189 2444 0
-2443 2444 0
-1189 -2443 0
-1190 2445 0
-2444 2445 0
-1190 -2444 0
-1191 2446 0
-2445 2446 0
-1191 -2445 0
-1192 2447 0
-2446 2447 0
-1192 -2446 0
-1193 2448 0
-2447 2448 0
-1193 -2447 0
-1194 2449 0
-2448 2449 0
-1194 -2448 0
-1195 2450 0
-2449 2450 0
-1195 -2449 0
-1196 2451 0
-2450 2451 0
-1196 -2450 0
-1197 2452 0
-2451 2452 0
-1197 -2451 0
-1198 2453 0
-2452 2453 0
-1198 -2452 0
-1199 2454 0
-2453 2454 0
-1199 -2453 0
-1200 2455 0
-2454 2455 0
-1200 -2454 0
-1201 2456 0
-2455 2456 0
-1201 -2455 0
-1202 2457 0
-2456 2457 0
-1202 -2456 0
-1203 2458 0
-2457 2458 0
-1203 -2457 0
-1204 2459 0
-2458 2459 0
-1204 -2458 0
-1205 2460 0
-2459 2460 0
-1205 -2459 0
-1206 2461 0
-2460 2461 0
-1206 -2460 0
-1207 2462 0
-2461 2462 0
-1207 -2461 0
-1208 2463 0
-2462 2463 0
-1208 -2462 0
-1209 2464 0
-2463 2464 0
-1209 -2463 0
-1210 2465 0
-2464 2465 0
-1210 -2464 0
-1211 2466 0
-2465 2466 0
-1211 -2465 0
-1212 2467 0
-2466 2467 0
-1212 -2466 0
-1213 2468 0
-2467 2468 0
-1213 -2467 0
-1214 2469 0
-2468 2469 0
-1214 -2468 0
-1215 2470 0
-2469 2470 0
-1215 -2469 0
-1216 2471 0
-2470 2471 0
-1216 -2470 0
-1217 2472 0
-2471 2472 0
-1217 -2471 0
-1218 2473 0
-2472 2473 0
-1218 -2472 0
-1219 2474 0
-2473 2474 0
-1219 -2473 0
-1220 2475 0
-2474 2475 0
-1220 -2474 0
-1221 2476 0
-2475 2476 0
-1221 -2475 0
-1222 2477 0
-2476 2477 0
-1222 -2476 0
-1223 2478 0
-2477 2478 0
-1223 -2477 0
-1224 2479 0
-2478 2479 0
-1224 -2478 0
-1225 2480 0
-2479 2480 0
-1225 -2479 0
-1226 2481 0
-2480 2481 0
-1226 -2480 0
-1227 2482 0
-2481 2482 0
-1227 -2481 0
-1228 2483 0
-2482 2483 0
-1228 -2482 0
-1229 2484 0
-2483 2484 0
-1229 -2483 0
-1230 2485 0
-2484 2485 0
-1230 -2484 0
-1231 2486 0
-2485 2486 0
-1231 -2485 0
-1232 2487 0
-2486 2487 0
-1232 -2486 0
-1233 2488 0
-2487 2488 0
-1233 -2487 0
-1234 2489 0
-2488 2489 0
-1234 -2488 0
-1235 2490 0
-2489 2490 0
-1235 -2489 0
-1236 2491 0
-2490 2491 0
-1236 -2490 0
-1237 2492 0
-2491 2492 0
-1237 -2491 0
-1238 2493 0
-2492 2493 0
-1238 -2492 0
-1239 2494 0
-2493 2494 0
-1239 -2493 0
-1240 2495 0
-2494 2495 0
-1240 -2494 0
-1241 2496 0
-2495 2496 0
-1241 -2495 0
-1242 2497 0
-2496 2497 0
-1242 -2496 0
-1243 2498 0
-2497 2498 0
-1243 -2497 0
-1244 2499 0
-2498 2499 0
-1244 -2498 0
-1245 2500 0
-2499 2500 0
-1245 -2499 0
-1246 2501 0
-2500 2501 0
-1246 -2500 0
-1247 2502 0
-2501 2502 0
-1247 -2501 0
-1248 2503 0
-2502 2503 0
-1248 -2502 0
-1249 2504 0
-2503 2504 0
-1249 -2503 0
-1250 2505 0
-2504 2505 0
-1250 -2504 0
-1251 2506 0
-2505 2506 0
-1251 -2505 0
-1252 2507 0
-2506 2507 0
-1252 -2506 0
-1253 2508 0
-2507 2508 0
-1253 -2507 0
-1254 2509 0
-2508 2509 0
-1254 -2508 0
-1255 2510 0
-2509 2510 0
-1255 -2509 0
-1256 2511 0
-2510 2511 0
-1256 -2510 0
-1257 2512 0
-2511 2512 0
-1257 -2511 0
-1258 2513 0
-2512 2513 0
-1258 -2512 0
-1259 2514 0
-2513 2514 0
-1259 -2513 0
-1260 2515 0
-2514 2515 0
-1260 -2514 0
-1261 2516 0
-2515 2516 0
-1261 -2515 0
-1262 2517 0
-2516 2517 0
-1262 -2516 0
-1263 -2517 0
-1 -4 16 0
-1 -5 22 0
-1 -6 20 0
-2 -4 28 0
-2 -5 25 27 0
-2 -6 23 26 0
-3 -4 17 0
-3 -5 18 19 0
-3 -6 21 24 0
-16 -7 30 0
-16 -8 34 0
-16 -9 73 0
-17 -7 63 0
-17 -8 40 68 0
-17 -9 60 72 0
-18 -7 64 0
-18 -8 42 44 0
-18 -9 74 78 0
-19 -7 88 0
-19 -8 65 85 0
-19 -9 37 75 0
-20 -7 55 0
-20 -8 35 86 0
-20 -9 51 53 0
-21 -7 56 0
-21 -8 48 70 0
-21 -9 50 61 0
-22 -7 32 0
-22 -8 41 69 0
-22 -9 36 77 0
-23 -7 71 0
-23 -8 62 87 0
-23 -9 33 52 0
-24 -7 72 0
-24 -8 58 82 0
-24 -9 63 76 0
-25 -7 39 0
-25 -8 43 84 0
-25 -9 46 83 0
-26 -7 66 0
-26 -8 54 67 0
-26 -9 38 47 0
-27 -7 45 0
-27 -8 31 81 0
-27 -9 57 59 0
-28 -7 31 0
-28 -8 45 80 0
-28 -9 49 79 0
-29 -10 0
-29 -11 0
-29 -12 0
-30 -10 89 0
-30 -11 310 0
-30 -12 98 0
-31 -10 334 0
-31 -11 92 260 0
-31 -12 169 170 0
-32 -10 237 0
-32 -11 91 238 0
-32 -12 173 218 0
-33 -10 278 0
-33 -11 143 174 0
-33 -12 191 230 0
-34 -10 117 0
-34 -11 119 224 0
-34 -12 329 332 0
-35 -10 288 0
-35 -11 159 233 0
-35 -12 102 298 0
-36 -10 186 0
-36 -11 95 249 0
-36 -12 216 244 0
-37 -10 207 0
-37 -11 184 297 0
-37 -12 209 300 0
-38 -10 103 0
-38 -11 104 328 0
-38 -12 156 322 0
-39 -10 260 0
-39 -11 294 334 0
-39 -12 116 267 0
-40 -10 224 0
-40 -11 117 128 0
-40 -12 137 151 0
-41 -10 109 0
-41 -11 163 246 0
-41 -12 227 293 0
-42 -10 259 0
-42 -11 162 304 0
-42 -12 197 299 0
-43 -10 124 0
-43 -11 324 333 0
-43 -12 201 270 0
-44 -10 246 0
-44 -11 109 145 0
-44 -12 110 127 0
-45 -10 333 0
-45 -11 124 189 0
-45 -12 284 301 0
-46 -10 105 0
-46 -11 107 179 0
-46 -12 213 253 0
-47 -10 309 0
-47 -11 132 280 0
-47 -12 144 250 0
-48 -10 151 0
-48 -11 136 329 0
-48 -12 224 335 0
-49 -10 107 0
-49 -11 100 105 0
-49 -12 225 231 0
-50 -10 139 0
-50 -11 148 228 0
-50 -12 254 330 0
-51 -10 135 0
-51 -11 133 221 0
-51 -12 182 206 0
-52 -10 154 0
-52 -11 126 292 0
-52 -12 273 287 0
-53 -10 199 0
-53 -11 223 327 0
-53 -12 308 331 0
-54 -10 243 0
-54 -11 152 281 0
-54 -12 204 277 0
-55 -10 182 0
-55 -11 252 317 0
-55 -12 125 135 0
-56 -10 192 0
-56 -11 248 266 0
-56 -12 134 193 0
-57 -10 268 0
-57 -11 271 285 0
-57 -12 90 180 0
-58 -10 159 0
-58 -11 208 288 0
-58 -12 212 235 0
-59 -10 178 0
-59 -11 121 171 0
-59 -12 99 214 0
-60 -10 97 0
-60 -11 101 220 0
-60 -12 94 203 0
-61 -10 203 0
-61 -11 194 282 0
-61 -12 97 257 0
-62 -10 321 0
-62 -11 196 279 0
-62 -12 123 314 0
-63 -10 134 0
-63 -11 261 302 0
-63 -12 192 326 0
-64 -10 142 0
-64 -11 167 176 0
-64 -12 155 325 0
-65 -10 289 0
-65 -11 238 291 0
-65 -12 161 283 0
-66 -10 287 0
-66 -11 215 245 0
-66 -12 131 154 0
-67 -10 318 0
-67 -11 130 323 0
-67 -12 129 307 0
-68 -10 158 0
-68 -11 181 247 0
-68 -12 108 140 0
-69 -10 238 0
-69 -11 237 289 0
-69 -12 198 234 0
-70 -10 108 0
-70 -11 177 296 0
-70 -12 157 158 0
-71 -10 250 0
-71 -11 210 305 0
-71 -12 272 309 0
-72 -10 254 0
-72 -11 164 258 0
-72 -12 111 139 0
-73 -10 96 0
-73 -11 160 315 0
-73 -12 269 286 0
-74 -10 195 0
-74 -11 138 290 0
-74 -12 122 265 0
-75 -10 319 0
-75 -11 229 263 0
-75 -12 106 311 0
-76 -10 185 0
-76 -11 172 240 0
-76 -12 165 205 0
-77 -10 150 0
-77 -11 211 274 0
-77 -12 226 262 0
-78 -10 188 0
-78 -11 162 241 0
-78 -12 217 236 0
-79 -10 190 0
-79 -11 183 303 0
-79 -12 153 175 0
-80 -10 239 0
-80 -11 149 316 0
-80 -12 141 313 0
-81 -10 146 0
-81 -11 166 242 0
-81 -12 219 275 0
-82 -10 256 0
-82 -11 114 312 0
-82 -12 147 187 0
-83 -10 183 0
-83 -11 93 190 0
-83 -12 115 118 0
-84 -10 316 0
-84 -11 239 295 0
-84 -12 222 264 0
-85 -10 167 0
-85 -11 142 255 0
-85 -12 251 320 0
-86 -10 296 0
-86 -11 108 113 0
-86 -12 181 200 0
-87 -10 120 0
-87 -11 276 295 0
-87 -12 112 202 0
-88 -10 145 0
-88 -11 246 306 0
-88 -12 168 232 0
-89 -13 337 0
-89 -14 362 0
-89 -15 620 0
-90 -13 986 0
-90 -14 760 1073 0
-90 -15 883 918 0
-91 -13 522 0
-91 -14 536 1147 0
-91 -15 568 628 0
-92 -13 545 0
-92 -14 644 1247 0
-92 -15 354 917 0
-93 -13 1002 0
-93 -14 342 454 0
-93 -15 1001 1066 0
-94 -13 835 0
-94 -14 393 395 0
-94 -15 799 1054 0
-95 -13 837 0
-95 -14 456 491 0
-95 -15 534 859 0
-96 -13 1097 0
-96 -14 582 757 0
-96 -15 441 499 0
-97 -13 789 0
-97 -14 1031 1235 0
-97 -15 481 604 0
-98 -13 1061 0
-98 -14 952 1155 0
-98 -15 684 876 0
-99 -13 700 0
-99 -14 402 1157 0
-99 -15 580 1114 0
-100 -13 426 0
-100 -14 516 860 0
-100 -15 369 725 0
-101 -13 1196 0
-101 -14 477 932 0
-101 -15 396 744 0
-102 -13 718 0
-102 -14 386 1043 0
-102 -15 437 762 0
-103 -13 403 0
-103 -14 589 640 0
-103 -15 770 1086 0
-104 -13 516 0
-104 -14 426 861 0
-104 -15 701 710 0
-105 -13 561 0
-105 -14 631 800 0
-105 -15 463 468 0
-106 -13 893 0
-106 -14 671 1208 0
-106 -15 380 1023 0
-107 -13 584 0
-107 -14 535 777 0
-107 -15 636 1186 0
-108 -13 1051 0
-108 -14 608 847 0
-108 -15 350 530 0
-109 -13 424 0
-109 -14 339 1140 0
-109 -15 527 663 0
-110 -13 903 0
-110 -14 824 832 0
-110 -15 434 748 0
-111 -13 604 0
-111 -14 540 1155 0
-111 -15 429 789 0
-112 -13 697 0
-112 -14 886 1065 0
-112 -15 849 945 0
-113 -13 651 0
-113 -14 347 412 0
-113 -15 450 1222 0
-114 -13 410 0
-114 -14 719 1096 0
-114 -15 747 1179 0
-115 -13 463 0
-115 -14 660 1204 0
-115 -15 561 1172 0
-116 -13 427 0
-116 -14 375 657 0
-116 -15 959 1150 0
-117 -13 343 0
-117 -14 658 999 0
-117 -15 662 905 0
-118 -13 1262 0
-118 -14 685 949 0
-118 -15 877 1259 0
-119 -13 999 0
-119 -14 343 750 0
-119 -15 512 890 0
-120 -13 1233 0
-120 -14 533 1160 0
-120 -15 1124 1217 0
-121 -13 947 0
-121 -14 392 612 0
-121 -15 764 1183 0
-122 -13 825 0
-122 -14 923 1240 0
-122 -15 474 1000 0
-123 -13 851 0
-123 -14 588 796 0
-123 -15 377 611 0
-124 -13 528 0
-124 -14 722 833 0
-124 -15 801 1070 0
-125 -13 558 0
-125 -14 501 1252 0
-125 -15 1036 1176 0
-126 -13 631 0
-126 -14 561 997 0
-126 -15 660 953 0
-127 -13 958 0
-127 -14 816 1170 0
-127 -15 987 1004 0
-128 -13 388 0
-128 -14 956 1232 0
-128 -15 941 1185 0
-129 -13 1194 0
-129 -14 960 1253 0
-129 -15 348 485 0
-130 -13 358 0
-130 -14 708 783 0
-130 -15 814 1141 0
-131 -13 645 0
-131 -14 519 538 0
-131 -15 467 486 0
-132 -13 657 0
-132 -14 427 884 0
-132 -15 524 1258 0
-133 -13 924 0
-133 -14 506 1013 0
-133 -15 888 1192 0
-134 -13 843 0
-134 -14 757 858 0
-134 -15 802 873 0
-135 -13 587 0
-135 -14 954 1031 0
-135 -15 407 961 0
-136 -13 847 0
-136 -14 1051 1178 0
-136 -15 521 585 0
-137 -13 600 0
-137 -14 691 1022 0
-137 -15 889 1115 0
-138 -13 1184 0
-138 -14 563 1059 0
-138 -15 864 1030 0
-139 -13 586 0
-139 -14 526 952 0
-139 -15 1092 1138 0
-140 -13 935 0
-140 -14 677 1191 0
-140 -15 564 915 0
-141 -13 1062 0
-141 -14 805 854 0
-141 -15 398 1226 0
-142 -13 902 0
-142 -14 464 925 0
-142 -15 595 996 0
-143 -13 1106 0
-143 -14 345 1181 0
-143 -15 353 707 0
-144 -13 731 0
-144 -14 593 920 0
-144 -15 376 912 0
-145 -13 1236 0
-145 -14 457 834 0
-145 -15 557 702 0
-146 -13 1173 0
-146 -14 404 860 0
-146 -15 406 451 0
-147 -13 821 0
-147 -14 785 984 0
-147 -15 423 682 0
-148 -13 1013 0
-148 -14 508 924 0
-148 -15 916 1076 0
-149 -13 783 0
-149 -14 358 1201 0
-149 -15 366 852 0
-150 -13 1136 0
-150 -14 457 1123 0
-150 -15 555 1009 0
-151 -13 573 0
-151 -14 436 1043 0
-151 -15 579 942 0
-152 -13 868 0
-152 -14 489 950 0
-152 -15 656 827 0
-153 -13 948 0
-153 -14 815 1079 0
-153 -15 1025 1060 0
-154 -13 606 0
-154 -14 414 550 0
-154 -15 496 1177 0
-155 -13 755 0
-155 -14 391 1229 0
-155 -15 693 1224 0
-156 -13 1045 0
-156 -14 570 590 0
-156 -15 567 603 0
-157 -13 1202 0
-157 -14 340 549 0
-157 -15 726 838 0
-158 -13 956 0
-158 -14 388 415 0
-158 -15 1129 1254 0
-159 -13 750 0
-159 -14 417 999 0
-159 -15 643 946 0
-160 -13 477 0
-160 -14 577 1196 0
-160 -15 936 1212 0
-161 -13 704 0
-161 -14 650 732 0
-161 -15 1026 1127 0
-162 -13 635 0
-162 -14 536 971 0
-162 -15 442 556 0
-163 -13 738 0
-163 -14 773 978 0
-163 -15 633 1044 0
-164 -13 497 0
-164 -14 498 1168 0
-164 -15 780 1168 0
-165 -13 934 0
-165 -14 542 1250 0
-165 -15 346 649 0
-166 -13 1011 0
-166 -14 338 1230 0
-166 -15 378 856 0
-167 -13 1223 0
-167 -14 1146 1162 0
-167 -15 670 1228 0
-168 -13 1248 0
-168 -14 562 621 0
-168 -15 544 668 0
-169 -13 774 0
-169 -14 448 490 0
-169 -15 479 761 0
-170 -13 576 0
-170 -14 462 775 0
-170 -15 863 1159 0
-171 -13 1006 0
-171 -14 1131 1156 0
-171 -15 714 966 0
-172 -13 932 0
-172 -14 853 1196 0
-172 -15 344 866 0
-173 -13 919 0
-173 -14 671 992 0
-173 -15 830 848 0
-174 -13 756 0
-174 -14 471 917 0
-174 -15 435 644 0
-175 -13 636 0
-175 -14 599 1101 0
-175 -15 584 1231 0
-176 -13 647 0
-176 -14 456 978 0
-176 -15 1064 1145 0
-177 -13 436 0
-177 -14 573 930 0
-177 -15 641 841 0
-178 -13 784 0
-178 -14 356 1171 0
-178 -15 505 793 0
-179 -13 550 0
-179 -14 606 727 0
-179 -15 699 1083 0
-180 -13 793 0
-180 -14 432 515 0
-180 -15 784 974 0
-181 -13 1178 0
-181 -14 681 847 0
-181 -15 809 892 0
-182 -13 713 0
-182 -14 679 858 0
-182 -15 609 786 0
-183 -13 1181 0
-183 -14 1106 1209 0
-183 -15 686 1249 0
-184 -13 445 0
-184 -14 554 1149 0
-184 -15 623 1216 0
-185 -13 1135 0
-185 -14 582 1075 0
-185 -15 723 1122 0
-186 -13 357 0
-186 -14 464 607 0
-186 -15 469 951 0
-187 -13 581 0
-187 -14 565 1005 0
-187 -15 390 1035 0
-188 -13 1140 0
-188 -14 424 717 0
-188 -15 507 709 0
-189 -13 1048 0
-189 -14 807 1169 0
-189 -15 419 559 0
-190 -13 1152 0
-190 -14 537 909 0
-190 -15 955 1234 0
-191 -13 1177 0
-191 -14 699 940 0
-191 -15 459 606 0
-192 -13 723 0
-192 -14 513 954 0
-192 -15 806 1135 0
-193 -13 346 0
-193 -14 711 846 0
-193 -15 539 934 0
-194 -13 737 0
-194 -14 583 880 0
-194 -15 368 768 0
-195 -13 1103 0
-195 -14 624 1067 0
-195 -15 626 1244 0
-196 -13 598 0
-196 -14 455 1195 0
-196 -15 495 845 0
-197 -13 562 0
-197 -14 352 1248 0
-197 -15 461 664 0
-198 -13 1198 0
-198 -14 349 808 0
-198 -15 421 675 0
-199 -13 609 0
-199 -14 487 610 0
-199 -15 476 713 0
-200 -13 673 0
-200 -14 394 677 0
-200 -15 678 1251 0
-201 -13 740 0
-201 -14 823 1164 0
-201 -15 374 1137 0
-202 -13 706 0
-202 -14 906 1193 0
-202 -15 724 1167 0
-203 -13 803 0
-203 -14 679 1260 0
-203 -15 1055 1093 0
-204 -13 458 0
-204 -14 571 654 0
-204 -15 440 1182 0
-205 -13 802 0
-205 -14 547 753 0
-205 -15 446 843 0
-206 -13 578 0
-206 -14 393 846 0
-206 -15 460 1039 0
-207 -13 380 0
-207 -14 639 733 0
-207 -15 741 893 0
-208 -13 658 0
-208 -14 343 1174 0
-208 -15 669 1161 0
-209 -13 897 0
-209 -14 405 1117 0
-209 -15 1034 1118 0
-210 -13 710 0
-210 -14 725 1119 0
-210 -15 516 882 0
-211 -13 554 0
-211 -14 445 546 0
-211 -15 574 990 0
-212 -13 1213 0
-212 -14 473 993 0
-212 -15 438 1111 0
-213 -13 503 0
-213 -14 430 828 0
-213 -15 839 1021 0
-214 -13 385 0
-214 -14 400 1082 0
-214 -15 493 734 0
-215 -13 707 0
-215 -14 686 715 0
-215 -15 1106 1197 0
-216 -13 980 0
-216 -14 790 994 0
-216 -15 425 613 0
-217 -13 1244 0
-217 -14 422 532 0
-217 -15 630 1103 0
-218 -13 413 0
-218 -14 532 551 0
-218 -15 811 1225 0
-219 -13 375 0
-219 -14 427 875 0
-219 -15 553 836 0
-220 -13 508 0
-220 -14 1013 1133 0
-220 -15 465 1188 0
-221 -13 577 0
-221 -14 477 484 0
-221 -15 488 705 0
-222 -13 1200 0
-222 -14 439 975 0
-222 -15 896 1027 0
-223 -13 1218 0
-223 -14 408 963 0
-223 -15 813 1016 0
-224 -13 412 0
-224 -14 651 719 0
-224 -15 776 913 0
-225 -13 904 0
-225 -14 666 1215 0
-225 -15 616 857 0
-226 -13 951 0
-226 -14 341 991 0
-226 -15 357 384 0
-227 -13 532 0
-227 -14 413 1244 0
-227 -15 624 655 0
-228 -13 510 0
-228 -14 844 1148 0
-228 -15 869 1153 0
-229 -13 383 0
-229 -14 401 1147 0
-229 -15 372 591 0
-230 -13 467 0
-230 -14 778 1003 0
-230 -15 645 766 0
-231 -13 955 0
-231 -14 523 721 0
-231 -15 862 1152 0
-232 -13 1038 0
-232 -14 341 1098 0
-232 -15 638 1134 0
-233 -13 466 0
-233 -14 1069 1232 0
-233 -15 397 661 0
-234 -13 1154 0
-234 -14 870 927 0
-234 -15 470 1214 0
-235 -13 1102 0
-235 -14 743 1057 0
-235 -15 475 1125 0
-236 -13 444 0
-236 -14 667 992 0
-236 -15 1037 1246 0
-237 -13 339 0
-237 -14 424 605 0
-237 -15 509 698 0
-238 -13 978 0
-238 -14 647 738 0
-238 -15 355 765 0
-239 -13 1169 0
-239 -14 351 1048 0
-239 -15 453 988 0
-240 -13 408 0
-240 -14 525 1218 0
-240 -15 894 1211 0
-241 -13 773 0
-241 -14 591 738 0
-241 -15 401 1255 0
-242 -13 1142 0
-242 -14 777 911 0
-242 -15 1040 1144 0
-243 -13 708 0
-243 -14 358 1107 0
-243 -15 1058 1094 0
-244 -13 1009 0
-244 -14 822 1229 0
-244 -15 1046 1136 0
-245 -13 644 0
-245 -14 545 763 0
-245 -15 756 1085 0
-246 -13 536 0
-246 -14 522 635 0
-246 -15 865 1056 0
-247 -13 719 0
-247 -14 410 412 0
-247 -15 478 735 0
-248 -13 1211 0
-248 -14 484 813 0
-248 -15 408 1126 0
-249 -13 728 0
-249 -14 772 1146 0
-249 -15 855 1052 0
-250 -13 1086 0
-250 -14 911 1221 0
-250 -15 403 1077 0
-251 -13 1017 0
-251 -14 810 1032 0
-251 -15 751 1033 0
-252 -13 813 0
-252 -14 880 1211 0
-252 -15 382 1218 0
-253 -13 686 0
-253 -14 694 707 0
-253 -15 364 1181 0
-254 -13 1093 0
-254 -14 362 487 0
-254 -15 622 803 0
-255 -13 1098 0
-255 -14 965 1038 0
-255 -15 742 1128 0
-256 -13 1174 0
-256 -14 397 658 0
-256 -15 928 1069 0
-257 -13 1138 0
-257 -14 720 1252 0
-257 -15 586 695 0
-258 -13 368 0
-258 -14 416 963 0
-258 -15 737 979 0
-259 -13 457 0
-259 -14 1136 1236 0
-259 -15 745 822 0
-260 -13 404 0
-260 -14 1173 1239 0
-260 -15 749 983 0
-261 -13 484 0
-261 -14 577 1211 0
-261 -15 525 982 0
-262 -13 352 0
-262 -14 562 683 0
-262 -15 881 1165 0
-263 -13 456 0
-263 -14 647 837 0
-263 -15 798 819 0
-264 -13 729 0
-264 -14 531 739 0
-264 -15 900 1190 0
-265 -13 507 0
-265 -14 527 541 0
-265 -15 627 1140 0
-266 -13 866 0
-266 -14 506 744 0
-266 -15 932 1012 0
-267 -13 1078 0
-267 -14 910 922 0
-267 -15 420 1242 0
-268 -13 734 0
-268 -14 575 1201 0
-268 -15 385 1205 0
-269 -13 842 0
-269 -14 969 1250 0
-269 -15 399 1207 0
-270 -13 887 0
-270 -14 572 588 0
-270 -15 361 989 0
-271 -13 619 0
-271 -14 351 656 0
-271 -15 489 617 0
-272 -13 1105 0
-272 -14 758 926 0
-272 -15 646 1020 0
-273 -13 1206 0
-273 -14 500 1116 0
-273 -15 359 1227 0
-274 -13 971 0
-274 -14 635 797 0
-274 -15 634 1089 0
-275 -13 922 0
-275 -14 680 1078 0
-275 -15 970 976 0
-276 -13 907 0
-276 -14 754 764 0
-276 -15 392 746 0
-277 -13 939 0
-277 -14 689 759 0
-277 -15 653 998 0
-278 -13 342 0
-278 -14 1002 1203 0
-278 -15 502 937 0
-279 -13 1160 0
-279 -14 370 1233 0
-279 -15 791 1088 0
-280 -13 1081 0
-280 -14 826 1014 0
-280 -15 597 632 0
-281 -13 807 0
-281 -14 1048 1112 0
-281 -15 615 931 0
-282 -13 1168 0
-282 -14 497 899 0
-282 -15 497 1238 0
-283 -13 391 0
-283 -14 755 1072 0
-283 -15 360 831 0
-284 -13 975 0
-284 -14 1087 1200 0
-284 -15 518 1047 0
-285 -13 1243 0
-285 -14 967 1099 0
-285 -15 665 771 0
-286 -13 441 0
-286 -14 513 753 0
-286 -15 511 1097 0
-287 -13 937 0
-287 -14 874 1066 0
-287 -15 342 1063 0
-288 -13 347 0
-288 -14 560 651 0
-288 -15 933 1245 0
-289 -13 925 0
-289 -14 902 1163 0
-289 -15 492 625 0
-290 -13 772 0
-290 -14 728 1004 0
-290 -15 472 1170 0
-291 -13 1162 0
-291 -14 696 1223 0
-291 -15 409 871 0
-292 -13 977 0
-292 -14 1028 1042 0
-292 -15 594 818 0
-293 -13 992 0
-293 -14 444 919 0
-293 -15 602 929 0
-294 -13 911 0
-294 -14 1086 1142 0
-294 -15 640 943 0
-295 -13 722 0
-295 -14 528 812 0
-295 -15 891 1166 0
-296 -13 1232 0
-296 -14 388 466 0
-296 -15 363 687 0
-297 -13 1068 0
-297 -14 962 1074 0
-297 -15 692 1007 0
-298 -13 365 0
-298 -14 1022 1108 0
-298 -15 895 1113 0
-299 -13 341 0
-299 -14 951 1038 0
-299 -15 607 703 0
-300 -13 981 0
-300 -14 449 1257 0
-300 -15 820 1018 0
-301 -13 531 0
-301 -14 729 901 0
-301 -15 514 642 0
-302 -13 416 0
-302 -14 368 371 0
-302 -15 583 1091 0
-303 -13 826 0
-303 -14 674 1081 0
-303 -15 529 921 0
-304 -13 546 0
-304 -14 554 810 0
-304 -15 914 1053 0
-305 -13 1239 0
-305 -14 404 1049 0
-305 -15 1121 1180 0
-306 -13 810 0
-306 -14 546 1017 0
-306 -15 716 1130 0
-307 -13 1189 0
-307 -14 754 1131 0
-307 -15 367 1071 0
-308 -13 1036 0
-308 -14 526 688 0
-308 -15 558 1199 0
-309 -13 567 0
-309 -14 1175 1187 0
-309 -15 648 1045 0
-310 -13 371 0
-310 -14 416 498 0
-310 -15 973 1015 0
-311 -13 433 0
-311 -14 483 551 0
-311 -15 1019 1104 0
-312 -13 417 0
-312 -14 750 1245 0
-312 -15 560 1120 0
-313 -13 752 0
-313 -14 480 1041 0
-313 -15 614 782 0
-314 -13 447 0
-314 -14 566 823 0
-314 -15 418 995 0
-315 -13 963 0
-315 -14 368 1218 0
-315 -15 652 880 0
-316 -13 1195 0
-316 -14 552 598 0
-316 -15 769 1263 0
-317 -13 498 0
-317 -14 371 497 0
-317 -15 411 899 0
-318 -13 950 0
-318 -14 373 868 0
-318 -15 443 1109 0
-319 -13 1118 0
-319 -14 605 1090 0
-319 -15 897 1095 0
-320 -13 520 0
-320 -14 872 968 0
-320 -15 878 1261 0
-321 -13 812 0
-321 -14 494 722 0
-321 -15 787 1151 0
-322 -13 1020 0
-322 -14 1084 1241 0
-322 -15 788 1105 0
-323 -13 659 0
-323 -14 400 1193 0
-323 -15 1024 1110 0
-324 -13 533 0
-324 -14 795 1233 0
-324 -15 736 957 0
-325 -13 650 0
-325 -14 704 790 0
-325 -15 850 1219 0
-326 -13 517 0
-326 -14 501 969 0
-326 -15 452 596 0
-327 -13 899 0
-327 -14 1015 1168 0
-327 -15 498 1029 0
-328 -13 1180 0
-328 -14 972 983 0
-328 -15 1210 1239 0
-329 -13 569 0
-329 -14 473 984 0
-329 -15 829 840 0
-330 -13 794 0
-330 -14 601 1100 0
-330 -15 730 1237 0
-331 -13 407 0
-331 -14 540 1143 0
-331 -15 587 672 0
-332 -13 379 0
-332 -14 565 1057 0
-332 -15 885 898 0
-333 -13 552 0
-333 -14 1080 1195 0
-333 -15 618 964 0
-334 -13 338 0
-334 -14 548 1011 0
-334 -15 482 938 0
-335 -13 804 0
-335 -14 428 867 0
-335 -15 781 1132 0
