c frozen O-aware sign-complete rational recursive S3 base
p cnf 59 1744
1 2 3 4 5 6 7 8 0
-1 -2 0
-1 -3 0
-1 -4 0
-1 -5 0
-1 -6 0
-1 -7 0
-1 -8 0
-2 -3 0
-2 -4 0
-2 -5 0
-2 -6 0
-2 -7 0
-2 -8 0
-3 -4 0
-3 -5 0
-3 -6 0
-3 -7 0
-3 -8 0
-4 -5 0
-4 -6 0
-4 -7 0
-4 -8 0
-5 -6 0
-5 -7 0
-5 -8 0
-6 -7 0
-6 -8 0
-7 -8 0
9 10 11 12 13 14 15 16 0
-9 -10 0
-9 -11 0
-9 -12 0
-9 -13 0
-9 -14 0
-9 -15 0
-9 -16 0
-10 -11 0
-10 -12 0
-10 -13 0
-10 -14 0
-10 -15 0
-10 -16 0
-11 -12 0
-11 -13 0
-11 -14 0
-11 -15 0
-11 -16 0
-12 -13 0
-12 -14 0
-12 -15 0
-12 -16 0
-13 -14 0
-13 -15 0
-13 -16 0
-14 -15 0
-14 -16 0
-15 -16 0
17 18 19 20 21 22 23 24 0
-17 -18 0
-17 -19 0
-17 -20 0
-17 -21 0
-17 -22 0
-17 -23 0
-17 -24 0
-18 -19 0
-18 -20 0
-18 -21 0
-18 -22 0
-18 -23 0
-18 -24 0
-19 -20 0
-19 -21 0
-19 -22 0
-19 -23 0
-19 -24 0
-20 -21 0
-20 -22 0
-20 -23 0
-20 -24 0
-21 -22 0
-21 -23 0
-21 -24 0
-22 -23 0
-22 -24 0
-23 -24 0
25 26 27 28 29 30 31 32 0
-25 -26 0
-25 -27 0
-25 -28 0
-25 -29 0
-25 -30 0
-25 -31 0
-25 -32 0
-26 -27 0
-26 -28 0
-26 -29 0
-26 -30 0
-26 -31 0
-26 -32 0
-27 -28 0
-27 -29 0
-27 -30 0
-27 -31 0
-27 -32 0
-28 -29 0
-28 -30 0
-28 -31 0
-28 -32 0
-29 -30 0
-29 -31 0
-29 -32 0
-30 -31 0
-30 -32 0
-31 -32 0
33 34 35 36 37 38 39 40 41 0
-33 -34 0
-33 -35 0
-33 -36 0
-33 -37 0
-33 -38 0
-33 -39 0
-33 -40 0
-33 -41 0
-34 -35 0
-34 -36 0
-34 -37 0
-34 -38 0
-34 -39 0
-34 -40 0
-34 -41 0
-35 -36 0
-35 -37 0
-35 -38 0
-35 -39 0
-35 -40 0
-35 -41 0
-36 -37 0
-36 -38 0
-36 -39 0
-36 -40 0
-36 -41 0
-37 -38 0
-37 -39 0
-37 -40 0
-37 -41 0
-38 -39 0
-38 -40 0
-38 -41 0
-39 -40 0
-39 -41 0
-40 -41 0
42 43 44 45 46 47 48 49 50 0
-42 -43 0
-42 -44 0
-42 -45 0
-42 -46 0
-42 -47 0
-42 -48 0
-42 -49 0
-42 -50 0
-43 -44 0
-43 -45 0
-43 -46 0
-43 -47 0
-43 -48 0
-43 -49 0
-43 -50 0
-44 -45 0
-44 -46 0
-44 -47 0
-44 -48 0
-44 -49 0
-44 -50 0
-45 -46 0
-45 -47 0
-45 -48 0
-45 -49 0
-45 -50 0
-46 -47 0
-46 -48 0
-46 -49 0
-46 -50 0
-47 -48 0
-47 -49 0
-47 -50 0
-48 -49 0
-48 -50 0
-49 -50 0
51 52 53 54 55 56 57 58 59 0
-51 -52 0
-51 -53 0
-51 -54 0
-51 -55 0
-51 -56 0
-51 -57 0
-51 -58 0
-51 -59 0
-52 -53 0
-52 -54 0
-52 -55 0
-52 -56 0
-52 -57 0
-52 -58 0
-52 -59 0
-53 -54 0
-53 -55 0
-53 -56 0
-53 -57 0
-53 -58 0
-53 -59 0
-54 -55 0
-54 -56 0
-54 -57 0
-54 -58 0
-54 -59 0
-55 -56 0
-55 -57 0
-55 -58 0
-55 -59 0
-56 -57 0
-56 -58 0
-56 -59 0
-57 -58 0
-57 -59 0
-58 -59 0
-1 -9 -34 0
-1 -9 -35 0
-1 -9 -36 0
-1 -9 -37 0
-1 -9 -38 0
-1 -9 -39 0
-1 -9 -40 0
-1 -9 -41 0
-1 -10 -33 0
-1 -10 -34 0
-1 -10 -36 0
-1 -10 -37 0
-1 -10 -38 0
-1 -10 -39 0
-1 -10 -40 0
-1 -10 -41 0
-1 -11 -33 0
-1 -11 -34 0
-1 -11 -35 0
-1 -11 -36 0
-1 -11 -38 0
-1 -11 -39 0
-1 -11 -40 0
-1 -11 -41 0
-1 -12 -33 0
-1 -12 -34 0
-1 -12 -35 0
-1 -12 -37 0
-1 -12 -38 0
-1 -12 -39 0
-1 -12 -40 0
-1 -12 -41 0
-1 -13 -33 0
-1 -13 -34 0
-1 -13 -35 0
-1 -13 -36 0
-1 -13 -37 0
-1 -13 -38 0
-1 -13 -39 0
-1 -13 -40 0
-1 -14 -33 0
-1 -14 -34 0
-1 -14 -35 0
-1 -14 -36 0
-1 -14 -37 0
-1 -14 -38 0
-1 -14 -39 0
-1 -14 -41 0
-1 -15 -33 0
-1 -15 -34 0
-1 -15 -35 0
-1 -15 -36 0
-1 -15 -37 0
-1 -15 -38 0
-1 -15 -40 0
-1 -15 -41 0
-1 -16 -33 0
-1 -16 -34 0
-1 -16 -35 0
-1 -16 -36 0
-1 -16 -37 0
-1 -16 -39 0
-1 -16 -40 0
-1 -16 -41 0
-2 -9 -33 0
-2 -9 -34 0
-2 -9 -36 0
-2 -9 -37 0
-2 -9 -38 0
-2 -9 -39 0
-2 -9 -40 0
-2 -9 -41 0
-2 -10 -35 0
-2 -10 -36 0
-2 -10 -37 0
-2 -10 -38 0
-2 -10 -39 0
-2 -10 -40 0
-2 -10 -41 0
-2 -11 -33 0
-2 -11 -34 0
-2 -11 -35 0
-2 -11 -38 0
-2 -11 -39 0
-2 -11 -40 0
-2 -11 -41 0
-2 -12 -33 0
-2 -12 -34 0
-2 -12 -35 0
-2 -12 -38 0
-2 -12 -39 0
-2 -12 -40 0
-2 -12 -41 0
-2 -13 -33 0
-2 -13 -34 0
-2 -13 -35 0
-2 -13 -36 0
-2 -13 -37 0
-2 -13 -38 0
-2 -13 -41 0
-2 -14 -33 0
-2 -14 -34 0
-2 -14 -35 0
-2 -14 -36 0
-2 -14 -37 0
-2 -14 -39 0
-2 -14 -40 0
-2 -15 -33 0
-2 -15 -34 0
-2 -15 -35 0
-2 -15 -36 0
-2 -15 -37 0
-2 -15 -39 0
-2 -15 -40 0
-2 -16 -33 0
-2 -16 -34 0
-2 -16 -35 0
-2 -16 -36 0
-2 -16 -37 0
-2 -16 -38 0
-2 -16 -41 0
-3 -9 -33 0
-3 -9 -34 0
-3 -9 -35 0
-3 -9 -36 0
-3 -9 -38 0
-3 -9 -39 0
-3 -9 -40 0
-3 -9 -41 0
-3 -10 -33 0
-3 -10 -34 0
-3 -10 -35 0
-3 -10 -38 0
-3 -10 -39 0
-3 -10 -40 0
-3 -10 -41 0
-3 -11 -34 0
-3 -11 -36 0
-3 -11 -37 0
-3 -11 -38 0
-3 -11 -39 0
-3 -11 -40 0
-3 -11 -41 0
-3 -12 -33 0
-3 -12 -36 0
-3 -12 -37 0
-3 -12 -38 0
-3 -12 -39 0
-3 -12 -40 0
-3 -12 -41 0
-3 -13 -33 0
-3 -13 -34 0
-3 -13 -35 0
-3 -13 -36 0
-3 -13 -37 0
-3 -13 -40 0
-3 -13 -41 0
-3 -14 -33 0
-3 -14 -34 0
-3 -14 -35 0
-3 -14 -36 0
-3 -14 -37 0
-3 -14 -39 0
-3 -14 -41 0
-3 -15 -33 0
-3 -15 -34 0
-3 -15 -35 0
-3 -15 -36 0
-3 -15 -37 0
-3 -15 -38 0
-3 -15 -40 0
-3 -16 -33 0
-3 -16 -34 0
-3 -16 -35 0
-3 -16 -36 0
-3 -16 -37 0
-3 -16 -38 0
-3 -16 -39 0
-4 -9 -33 0
-4 -9 -34 0
-4 -9 -35 0
-4 -9 -37 0
-4 -9 -38 0
-4 -9 -39 0
-4 -9 -40 0
-4 -9 -41 0
-4 -10 -33 0
-4 -10 -34 0
-4 -10 -35 0
-4 -10 -38 0
-4 -10 -39 0
-4 -10 -40 0
-4 -10 -41 0
-4 -11 -33 0
-4 -11 -36 0
-4 -11 -37 0
-4 -11 -38 0
-4 -11 -39 0
-4 -11 -40 0
-4 -11 -41 0
-4 -12 -34 0
-4 -12 -36 0
-4 -12 -37 0
-4 -12 -38 0
-4 -12 -39 0
-4 -12 -40 0
-4 -12 -41 0
-4 -13 -33 0
-4 -13 -34 0
-4 -13 -35 0
-4 -13 -36 0
-4 -13 -37 0
-4 -13 -38 0
-4 -13 -39 0
-4 -14 -33 0
-4 -14 -34 0
-4 -14 -35 0
-4 -14 -36 0
-4 -14 -37 0
-4 -14 -38 0
-4 -14 -40 0
-4 -15 -33 0
-4 -15 -34 0
-4 -15 -35 0
-4 -15 -36 0
-4 -15 -37 0
-4 -15 -39 0
-4 -15 -41 0
-4 -16 -33 0
-4 -16 -34 0
-4 -16 -35 0
-4 -16 -36 0
-4 -16 -37 0
-4 -16 -40 0
-4 -16 -41 0
-5 -9 -33 0
-5 -9 -34 0
-5 -9 -35 0
-5 -9 -36 0
-5 -9 -37 0
-5 -9 -38 0
-5 -9 -39 0
-5 -9 -40 0
-5 -10 -33 0
-5 -10 -34 0
-5 -10 -35 0
-5 -10 -36 0
-5 -10 -37 0
-5 -10 -38 0
-5 -10 -41 0
-5 -11 -33 0
-5 -11 -34 0
-5 -11 -35 0
-5 -11 -36 0
-5 -11 -37 0
-5 -11 -40 0
-5 -11 -41 0
-5 -12 -33 0
-5 -12 -34 0
-5 -12 -35 0
-5 -12 -36 0
-5 -12 -37 0
-5 -12 -38 0
-5 -12 -39 0
-5 -13 -34 0
-5 -13 -35 0
-5 -13 -37 0
-5 -13 -38 0
-5 -13 -39 0
-5 -13 -40 0
-5 -13 -41 0
-5 -14 -33 0
-5 -14 -34 0
-5 -14 -37 0
-5 -14 -38 0
-5 -14 -39 0
-5 -14 -40 0
-5 -14 -41 0
-5 -15 -33 0
-5 -15 -34 0
-5 -15 -36 0
-5 -15 -38 0
-5 -15 -39 0
-5 -15 -40 0
-5 -15 -41 0
-5 -16 -33 0
-5 -16 -35 0
-5 -16 -36 0
-5 -16 -38 0
-5 -16 -39 0
-5 -16 -40 0
-5 -16 -41 0
-6 -9 -33 0
-6 -9 -34 0
-6 -9 -35 0
-6 -9 -36 0
-6 -9 -37 0
-6 -9 -38 0
-6 -9 -39 0
-6 -9 -41 0
-6 -10 -33 0
-6 -10 -34 0
-6 -10 -35 0
-6 -10 -36 0
-6 -10 -37 0
-6 -10 -39 0
-6 -10 -40 0
-6 -11 -33 0
-6 -11 -34 0
-6 -11 -35 0
-6 -11 -36 0
-6 -11 -37 0
-6 -11 -39 0
-6 -11 -41 0
-6 -12 -33 0
-6 -12 -34 0
-6 -12 -35 0
-6 -12 -36 0
-6 -12 -37 0
-6 -12 -38 0
-6 -12 -40 0
-6 -13 -33 0
-6 -13 -34 0
-6 -13 -37 0
-6 -13 -38 0
-6 -13 -39 0
-6 -13 -40 0
-6 -13 -41 0
-6 -14 -34 0
-6 -14 -35 0
-6 -14 -36 0
-6 -14 -38 0
-6 -14 -39 0
-6 -14 -40 0
-6 -14 -41 0
-6 -15 -33 0
-6 -15 -35 0
-6 -15 -37 0
-6 -15 -38 0
-6 -15 -39 0
-6 -15 -40 0
-6 -15 -41 0
-6 -16 -33 0
-6 -16 -34 0
-6 -16 -36 0
-6 -16 -38 0
-6 -16 -39 0
-6 -16 -40 0
-6 -16 -41 0
-7 -9 -33 0
-7 -9 -34 0
-7 -9 -35 0
-7 -9 -36 0
-7 -9 -37 0
-7 -9 -38 0
-7 -9 -40 0
-7 -9 -41 0
-7 -10 -33 0
-7 -10 -34 0
-7 -10 -35 0
-7 -10 -36 0
-7 -10 -37 0
-7 -10 -39 0
-7 -10 -40 0
-7 -11 -33 0
-7 -11 -34 0
-7 -11 -35 0
-7 -11 -36 0
-7 -11 -37 0
-7 -11 -38 0
-7 -11 -40 0
-7 -12 -33 0
-7 -12 -34 0
-7 -12 -35 0
-7 -12 -36 0
-7 -12 -37 0
-7 -12 -39 0
-7 -12 -41 0
-7 -13 -33 0
-7 -13 -34 0
-7 -13 -36 0
-7 -13 -38 0
-7 -13 -39 0
-7 -13 -40 0
-7 -13 -41 0
-7 -14 -33 0
-7 -14 -35 0
-7 -14 -37 0
-7 -14 -38 0
-7 -14 -39 0
-7 -14 -40 0
-7 -14 -41 0
-7 -15 -34 0
-7 -15 -35 0
-7 -15 -36 0
-7 -15 -38 0
-7 -15 -39 0
-7 -15 -40 0
-7 -15 -41 0
-7 -16 -33 0
-7 -16 -34 0
-7 -16 -37 0
-7 -16 -38 0
-7 -16 -39 0
-7 -16 -40 0
-7 -16 -41 0
-8 -9 -33 0
-8 -9 -34 0
-8 -9 -35 0
-8 -9 -36 0
-8 -9 -37 0
-8 -9 -39 0
-8 -9 -40 0
-8 -9 -41 0
-8 -10 -33 0
-8 -10 -34 0
-8 -10 -35 0
-8 -10 -36 0
-8 -10 -37 0
-8 -10 -38 0
-8 -10 -41 0
-8 -11 -33 0
-8 -11 -34 0
-8 -11 -35 0
-8 -11 -36 0
-8 -11 -37 0
-8 -11 -38 0
-8 -11 -39 0
-8 -12 -33 0
-8 -12 -34 0
-8 -12 -35 0
-8 -12 -36 0
-8 -12 -37 0
-8 -12 -40 0
-8 -12 -41 0
-8 -13 -33 0
-8 -13 -35 0
-8 -13 -36 0
-8 -13 -38 0
-8 -13 -39 0
-8 -13 -40 0
-8 -13 -41 0
-8 -14 -33 0
-8 -14 -34 0
-8 -14 -36 0
-8 -14 -38 0
-8 -14 -39 0
-8 -14 -40 0
-8 -14 -41 0
-8 -15 -33 0
-8 -15 -34 0
-8 -15 -37 0
-8 -15 -38 0
-8 -15 -39 0
-8 -15 -40 0
-8 -15 -41 0
-8 -16 -34 0
-8 -16 -35 0
-8 -16 -37 0
-8 -16 -38 0
-8 -16 -39 0
-8 -16 -40 0
-8 -16 -41 0
-33 -17 -42 0
-33 -17 -44 0
-33 -17 -45 0
-33 -17 -46 0
-33 -17 -47 0
-33 -17 -48 0
-33 -17 -49 0
-33 -17 -50 0
-33 -18 -42 0
-33 -18 -43 0
-33 -18 -45 0
-33 -18 -46 0
-33 -18 -47 0
-33 -18 -48 0
-33 -18 -49 0
-33 -18 -50 0
-33 -19 -42 0
-33 -19 -43 0
-33 -19 -44 0
-33 -19 -46 0
-33 -19 -47 0
-33 -19 -48 0
-33 -19 -49 0
-33 -19 -50 0
-33 -20 -42 0
-33 -20 -43 0
-33 -20 -44 0
-33 -20 -45 0
-33 -20 -47 0
-33 -20 -48 0
-33 -20 -49 0
-33 -20 -50 0
-33 -21 -42 0
-33 -21 -43 0
-33 -21 -44 0
-33 -21 -45 0
-33 -21 -46 0
-33 -21 -48 0
-33 -21 -49 0
-33 -21 -50 0
-33 -22 -42 0
-33 -22 -43 0
-33 -22 -44 0
-33 -22 -45 0
-33 -22 -46 0
-33 -22 -47 0
-33 -22 -49 0
-33 -22 -50 0
-33 -23 -42 0
-33 -23 -43 0
-33 -23 -44 0
-33 -23 -45 0
-33 -23 -46 0
-33 -23 -47 0
-33 -23 -48 0
-33 -23 -50 0
-33 -24 -42 0
-33 -24 -43 0
-33 -24 -44 0
-33 -24 -45 0
-33 -24 -46 0
-33 -24 -47 0
-33 -24 -48 0
-33 -24 -49 0
-34 -17 -43 0
-34 -17 -44 0
-34 -17 -45 0
-34 -17 -46 0
-34 -17 -47 0
-34 -17 -48 0
-34 -17 -49 0
-34 -17 -50 0
-34 -18 -42 0
-34 -18 -43 0
-34 -18 -45 0
-34 -18 -46 0
-34 -18 -47 0
-34 -18 -48 0
-34 -18 -49 0
-34 -18 -50 0
-34 -19 -42 0
-34 -19 -43 0
-34 -19 -44 0
-34 -19 -45 0
-34 -19 -47 0
-34 -19 -48 0
-34 -19 -49 0
-34 -19 -50 0
-34 -20 -42 0
-34 -20 -43 0
-34 -20 -44 0
-34 -20 -46 0
-34 -20 -47 0
-34 -20 -48 0
-34 -20 -49 0
-34 -20 -50 0
-34 -21 -42 0
-34 -21 -43 0
-34 -21 -44 0
-34 -21 -45 0
-34 -21 -46 0
-34 -21 -47 0
-34 -21 -48 0
-34 -21 -49 0
-34 -22 -42 0
-34 -22 -43 0
-34 -22 -44 0
-34 -22 -45 0
-34 -22 -46 0
-34 -22 -47 0
-34 -22 -48 0
-34 -22 -50 0
-34 -23 -42 0
-34 -23 -43 0
-34 -23 -44 0
-34 -23 -45 0
-34 -23 -46 0
-34 -23 -47 0
-34 -23 -49 0
-34 -23 -50 0
-34 -24 -42 0
-34 -24 -43 0
-34 -24 -44 0
-34 -24 -45 0
-34 -24 -46 0
-34 -24 -48 0
-34 -24 -49 0
-34 -24 -50 0
-35 -17 -42 0
-35 -17 -43 0
-35 -17 -45 0
-35 -17 -46 0
-35 -17 -47 0
-35 -17 -48 0
-35 -17 -49 0
-35 -17 -50 0
-35 -18 -44 0
-35 -18 -45 0
-35 -18 -46 0
-35 -18 -47 0
-35 -18 -48 0
-35 -18 -49 0
-35 -18 -50 0
-35 -19 -42 0
-35 -19 -43 0
-35 -19 -44 0
-35 -19 -47 0
-35 -19 -48 0
-35 -19 -49 0
-35 -19 -50 0
-35 -20 -42 0
-35 -20 -43 0
-35 -20 -44 0
-35 -20 -47 0
-35 -20 -48 0
-35 -20 -49 0
-35 -20 -50 0
-35 -21 -42 0
-35 -21 -43 0
-35 -21 -44 0
-35 -21 -45 0
-35 -21 -46 0
-35 -21 -47 0
-35 -21 -50 0
-35 -22 -42 0
-35 -22 -43 0
-35 -22 -44 0
-35 -22 -45 0
-35 -22 -46 0
-35 -22 -48 0
-35 -22 -49 0
-35 -23 -42 0
-35 -23 -43 0
-35 -23 -44 0
-35 -23 -45 0
-35 -23 -46 0
-35 -23 -48 0
-35 -23 -49 0
-35 -24 -42 0
-35 -24 -43 0
-35 -24 -44 0
-35 -24 -45 0
-35 -24 -46 0
-35 -24 -47 0
-35 -24 -50 0
-36 -17 -42 0
-36 -17 -43 0
-36 -17 -44 0
-36 -17 -45 0
-36 -17 -47 0
-36 -17 -48 0
-36 -17 -49 0
-36 -17 -50 0
-36 -18 -42 0
-36 -18 -43 0
-36 -18 -44 0
-36 -18 -47 0
-36 -18 -48 0
-36 -18 -49 0
-36 -18 -50 0
-36 -19 -43 0
-36 -19 -45 0
-36 -19 -46 0
-36 -19 -47 0
-36 -19 -48 0
-36 -19 -49 0
-36 -19 -50 0
-36 -20 -42 0
-36 -20 -45 0
-36 -20 -46 0
-36 -20 -47 0
-36 -20 -48 0
-36 -20 -49 0
-36 -20 -50 0
-36 -21 -42 0
-36 -21 -43 0
-36 -21 -44 0
-36 -21 -45 0
-36 -21 -46 0
-36 -21 -49 0
-36 -21 -50 0
-36 -22 -42 0
-36 -22 -43 0
-36 -22 -44 0
-36 -22 -45 0
-36 -22 -46 0
-36 -22 -48 0
-36 -22 -50 0
-36 -23 -42 0
-36 -23 -43 0
-36 -23 -44 0
-36 -23 -45 0
-36 -23 -46 0
-36 -23 -47 0
-36 -23 -49 0
-36 -24 -42 0
-36 -24 -43 0
-36 -24 -44 0
-36 -24 -45 0
-36 -24 -46 0
-36 -24 -47 0
-36 -24 -48 0
-37 -17 -42 0
-37 -17 -43 0
-37 -17 -44 0
-37 -17 -46 0
-37 -17 -47 0
-37 -17 -48 0
-37 -17 -49 0
-37 -17 -50 0
-37 -18 -42 0
-37 -18 -43 0
-37 -18 -44 0
-37 -18 -47 0
-37 -18 -48 0
-37 -18 -49 0
-37 -18 -50 0
-37 -19 -42 0
-37 -19 -45 0
-37 -19 -46 0
-37 -19 -47 0
-37 -19 -48 0
-37 -19 -49 0
-37 -19 -50 0
-37 -20 -43 0
-37 -20 -45 0
-37 -20 -46 0
-37 -20 -47 0
-37 -20 -48 0
-37 -20 -49 0
-37 -20 -50 0
-37 -21 -42 0
-37 -21 -43 0
-37 -21 -44 0
-37 -21 -45 0
-37 -21 -46 0
-37 -21 -47 0
-37 -21 -48 0
-37 -22 -42 0
-37 -22 -43 0
-37 -22 -44 0
-37 -22 -45 0
-37 -22 -46 0
-37 -22 -47 0
-37 -22 -49 0
-37 -23 -42 0
-37 -23 -43 0
-37 -23 -44 0
-37 -23 -45 0
-37 -23 -46 0
-37 -23 -48 0
-37 -23 -50 0
-37 -24 -42 0
-37 -24 -43 0
-37 -24 -44 0
-37 -24 -45 0
-37 -24 -46 0
-37 -24 -49 0
-37 -24 -50 0
-38 -17 -42 0
-38 -17 -43 0
-38 -17 -44 0
-38 -17 -45 0
-38 -17 -46 0
-38 -17 -47 0
-38 -17 -48 0
-38 -17 -49 0
-38 -18 -42 0
-38 -18 -43 0
-38 -18 -44 0
-38 -18 -45 0
-38 -18 -46 0
-38 -18 -47 0
-38 -18 -50 0
-38 -19 -42 0
-38 -19 -43 0
-38 -19 -44 0
-38 -19 -45 0
-38 -19 -46 0
-38 -19 -49 0
-38 -19 -50 0
-38 -20 -42 0
-38 -20 -43 0
-38 -20 -44 0
-38 -20 -45 0
-38 -20 -46 0
-38 -20 -47 0
-38 -20 -48 0
-38 -21 -43 0
-38 -21 -44 0
-38 -21 -46 0
-38 -21 -47 0
-38 -21 -48 0
-38 -21 -49 0
-38 -21 -50 0
-38 -22 -42 0
-38 -22 -43 0
-38 -22 -46 0
-38 -22 -47 0
-38 -22 -48 0
-38 -22 -49 0
-38 -22 -50 0
-38 -23 -42 0
-38 -23 -43 0
-38 -23 -45 0
-38 -23 -47 0
-38 -23 -48 0
-38 -23 -49 0
-38 -23 -50 0
-38 -24 -42 0
-38 -24 -44 0
-38 -24 -45 0
-38 -24 -47 0
-38 -24 -48 0
-38 -24 -49 0
-38 -24 -50 0
-39 -17 -42 0
-39 -17 -43 0
-39 -17 -44 0
-39 -17 -45 0
-39 -17 -46 0
-39 -17 -47 0
-39 -17 -48 0
-39 -17 -50 0
-39 -18 -42 0
-39 -18 -43 0
-39 -18 -44 0
-39 -18 -45 0
-39 -18 -46 0
-39 -18 -48 0
-39 -18 -49 0
-39 -19 -42 0
-39 -19 -43 0
-39 -19 -44 0
-39 -19 -45 0
-39 -19 -46 0
-39 -19 -48 0
-39 -19 -50 0
-39 -20 -42 0
-39 -20 -43 0
-39 -20 -44 0
-39 -20 -45 0
-39 -20 -46 0
-39 -20 -47 0
-39 -20 -49 0
-39 -21 -42 0
-39 -21 -43 0
-39 -21 -46 0
-39 -21 -47 0
-39 -21 -48 0
-39 -21 -49 0
-39 -21 -50 0
-39 -22 -43 0
-39 -22 -44 0
-39 -22 -45 0
-39 -22 -47 0
-39 -22 -48 0
-39 -22 -49 0
-39 -22 -50 0
-39 -23 -42 0
-39 -23 -44 0
-39 -23 -46 0
-39 -23 -47 0
-39 -23 -48 0
-39 -23 -49 0
-39 -23 -50 0
-39 -24 -42 0
-39 -24 -43 0
-39 -24 -45 0
-39 -24 -47 0
-39 -24 -48 0
-39 -24 -49 0
-39 -24 -50 0
-40 -17 -42 0
-40 -17 -43 0
-40 -17 -44 0
-40 -17 -45 0
-40 -17 -46 0
-40 -17 -47 0
-40 -17 -49 0
-40 -17 -50 0
-40 -18 -42 0
-40 -18 -43 0
-40 -18 -44 0
-40 -18 -45 0
-40 -18 -46 0
-40 -18 -48 0
-40 -18 -49 0
-40 -19 -42 0
-40 -19 -43 0
-40 -19 -44 0
-40 -19 -45 0
-40 -19 -46 0
-40 -19 -47 0
-40 -19 -49 0
-40 -20 -42 0
-40 -20 -43 0
-40 -20 -44 0
-40 -20 -45 0
-40 -20 -46 0
-40 -20 -48 0
-40 -20 -50 0
-40 -21 -42 0
-40 -21 -43 0
-40 -21 -45 0
-40 -21 -47 0
-40 -21 -48 0
-40 -21 -49 0
-40 -21 -50 0
-40 -22 -42 0
-40 -22 -44 0
-40 -22 -46 0
-40 -22 -47 0
-40 -22 -48 0
-40 -22 -49 0
-40 -22 -50 0
-40 -23 -43 0
-40 -23 -44 0
-40 -23 -45 0
-40 -23 -47 0
-40 -23 -48 0
-40 -23 -49 0
-40 -23 -50 0
-40 -24 -42 0
-40 -24 -43 0
-40 -24 -46 0
-40 -24 -47 0
-40 -24 -48 0
-40 -24 -49 0
-40 -24 -50 0
-41 -17 -42 0
-41 -17 -43 0
-41 -17 -44 0
-41 -17 -45 0
-41 -17 -46 0
-41 -17 -48 0
-41 -17 -49 0
-41 -17 -50 0
-41 -18 -42 0
-41 -18 -43 0
-41 -18 -44 0
-41 -18 -45 0
-41 -18 -46 0
-41 -18 -47 0
-41 -18 -50 0
-41 -19 -42 0
-41 -19 -43 0
-41 -19 -44 0
-41 -19 -45 0
-41 -19 -46 0
-41 -19 -47 0
-41 -19 -48 0
-41 -20 -42 0
-41 -20 -43 0
-41 -20 -44 0
-41 -20 -45 0
-41 -20 -46 0
-41 -20 -49 0
-41 -20 -50 0
-41 -21 -42 0
-41 -21 -44 0
-41 -21 -45 0
-41 -21 -47 0
-41 -21 -48 0
-41 -21 -49 0
-41 -21 -50 0
-41 -22 -42 0
-41 -22 -43 0
-41 -22 -45 0
-41 -22 -47 0
-41 -22 -48 0
-41 -22 -49 0
-41 -22 -50 0
-41 -23 -42 0
-41 -23 -43 0
-41 -23 -46 0
-41 -23 -47 0
-41 -23 -48 0
-41 -23 -49 0
-41 -23 -50 0
-41 -24 -43 0
-41 -24 -44 0
-41 -24 -46 0
-41 -24 -47 0
-41 -24 -48 0
-41 -24 -49 0
-41 -24 -50 0
-42 -25 -51 0
-42 -25 -53 0
-42 -25 -54 0
-42 -25 -55 0
-42 -25 -56 0
-42 -25 -57 0
-42 -25 -58 0
-42 -25 -59 0
-42 -26 -51 0
-42 -26 -52 0
-42 -26 -54 0
-42 -26 -55 0
-42 -26 -56 0
-42 -26 -57 0
-42 -26 -58 0
-42 -26 -59 0
-42 -27 -51 0
-42 -27 -52 0
-42 -27 -53 0
-42 -27 -55 0
-42 -27 -56 0
-42 -27 -57 0
-42 -27 -58 0
-42 -27 -59 0
-42 -28 -51 0
-42 -28 -52 0
-42 -28 -53 0
-42 -28 -54 0
-42 -28 -56 0
-42 -28 -57 0
-42 -28 -58 0
-42 -28 -59 0
-42 -29 -51 0
-42 -29 -52 0
-42 -29 -53 0
-42 -29 -54 0
-42 -29 -55 0
-42 -29 -57 0
-42 -29 -58 0
-42 -29 -59 0
-42 -30 -51 0
-42 -30 -52 0
-42 -30 -53 0
-42 -30 -54 0
-42 -30 -55 0
-42 -30 -56 0
-42 -30 -58 0
-42 -30 -59 0
-42 -31 -51 0
-42 -31 -52 0
-42 -31 -53 0
-42 -31 -54 0
-42 -31 -55 0
-42 -31 -56 0
-42 -31 -57 0
-42 -31 -59 0
-42 -32 -51 0
-42 -32 -52 0
-42 -32 -53 0
-42 -32 -54 0
-42 -32 -55 0
-42 -32 -56 0
-42 -32 -57 0
-42 -32 -58 0
-43 -25 -52 0
-43 -25 -53 0
-43 -25 -54 0
-43 -25 -55 0
-43 -25 -56 0
-43 -25 -57 0
-43 -25 -58 0
-43 -25 -59 0
-43 -26 -51 0
-43 -26 -52 0
-43 -26 -54 0
-43 -26 -55 0
-43 -26 -56 0
-43 -26 -57 0
-43 -26 -58 0
-43 -26 -59 0
-43 -27 -51 0
-43 -27 -52 0
-43 -27 -53 0
-43 -27 -54 0
-43 -27 -56 0
-43 -27 -57 0
-43 -27 -58 0
-43 -27 -59 0
-43 -28 -51 0
-43 -28 -52 0
-43 -28 -53 0
-43 -28 -55 0
-43 -28 -56 0
-43 -28 -57 0
-43 -28 -58 0
-43 -28 -59 0
-43 -29 -51 0
-43 -29 -52 0
-43 -29 -53 0
-43 -29 -54 0
-43 -29 -55 0
-43 -29 -56 0
-43 -29 -57 0
-43 -29 -58 0
-43 -30 -51 0
-43 -30 -52 0
-43 -30 -53 0
-43 -30 -54 0
-43 -30 -55 0
-43 -30 -56 0
-43 -30 -57 0
-43 -30 -59 0
-43 -31 -51 0
-43 -31 -52 0
-43 -31 -53 0
-43 -31 -54 0
-43 -31 -55 0
-43 -31 -56 0
-43 -31 -58 0
-43 -31 -59 0
-43 -32 -51 0
-43 -32 -52 0
-43 -32 -53 0
-43 -32 -54 0
-43 -32 -55 0
-43 -32 -57 0
-43 -32 -58 0
-43 -32 -59 0
-44 -25 -51 0
-44 -25 -52 0
-44 -25 -54 0
-44 -25 -55 0
-44 -25 -56 0
-44 -25 -57 0
-44 -25 -58 0
-44 -25 -59 0
-44 -26 -53 0
-44 -26 -54 0
-44 -26 -55 0
-44 -26 -56 0
-44 -26 -57 0
-44 -26 -58 0
-44 -26 -59 0
-44 -27 -51 0
-44 -27 -52 0
-44 -27 -53 0
-44 -27 -56 0
-44 -27 -57 0
-44 -27 -58 0
-44 -27 -59 0
-44 -28 -51 0
-44 -28 -52 0
-44 -28 -53 0
-44 -28 -56 0
-44 -28 -57 0
-44 -28 -58 0
-44 -28 -59 0
-44 -29 -51 0
-44 -29 -52 0
-44 -29 -53 0
-44 -29 -54 0
-44 -29 -55 0
-44 -29 -56 0
-44 -29 -59 0
-44 -30 -51 0
-44 -30 -52 0
-44 -30 -53 0
-44 -30 -54 0
-44 -30 -55 0
-44 -30 -57 0
-44 -30 -58 0
-44 -31 -51 0
-44 -31 -52 0
-44 -31 -53 0
-44 -31 -54 0
-44 -31 -55 0
-44 -31 -57 0
-44 -31 -58 0
-44 -32 -51 0
-44 -32 -52 0
-44 -32 -53 0
-44 -32 -54 0
-44 -32 -55 0
-44 -32 -56 0
-44 -32 -59 0
-45 -25 -51 0
-45 -25 -52 0
-45 -25 -53 0
-45 -25 -54 0
-45 -25 -56 0
-45 -25 -57 0
-45 -25 -58 0
-45 -25 -59 0
-45 -26 -51 0
-45 -26 -52 0
-45 -26 -53 0
-45 -26 -56 0
-45 -26 -57 0
-45 -26 -58 0
-45 -26 -59 0
-45 -27 -52 0
-45 -27 -54 0
-45 -27 -55 0
-45 -27 -56 0
-45 -27 -57 0
-45 -27 -58 0
-45 -27 -59 0
-45 -28 -51 0
-45 -28 -54 0
-45 -28 -55 0
-45 -28 -56 0
-45 -28 -57 0
-45 -28 -58 0
-45 -28 -59 0
-45 -29 -51 0
-45 -29 -52 0
-45 -29 -53 0
-45 -29 -54 0
-45 -29 -55 0
-45 -29 -58 0
-45 -29 -59 0
-45 -30 -51 0
-45 -30 -52 0
-45 -30 -53 0
-45 -30 -54 0
-45 -30 -55 0
-45 -30 -57 0
-45 -30 -59 0
-45 -31 -51 0
-45 -31 -52 0
-45 -31 -53 0
-45 -31 -54 0
-45 -31 -55 0
-45 -31 -56 0
-45 -31 -58 0
-45 -32 -51 0
-45 -32 -52 0
-45 -32 -53 0
-45 -32 -54 0
-45 -32 -55 0
-45 -32 -56 0
-45 -32 -57 0
-46 -25 -51 0
-46 -25 -52 0
-46 -25 -53 0
-46 -25 -55 0
-46 -25 -56 0
-46 -25 -57 0
-46 -25 -58 0
-46 -25 -59 0
-46 -26 -51 0
-46 -26 -52 0
-46 -26 -53 0
-46 -26 -56 0
-46 -26 -57 0
-46 -26 -58 0
-46 -26 -59 0
-46 -27 -51 0
-46 -27 -54 0
-46 -27 -55 0
-46 -27 -56 0
-46 -27 -57 0
-46 -27 -58 0
-46 -27 -59 0
-46 -28 -52 0
-46 -28 -54 0
-46 -28 -55 0
-46 -28 -56 0
-46 -28 -57 0
-46 -28 -58 0
-46 -28 -59 0
-46 -29 -51 0
-46 -29 -52 0
-46 -29 -53 0
-46 -29 -54 0
-46 -29 -55 0
-46 -29 -56 0
-46 -29 -57 0
-46 -30 -51 0
-46 -30 -52 0
-46 -30 -53 0
-46 -30 -54 0
-46 -30 -55 0
-46 -30 -56 0
-46 -30 -58 0
-46 -31 -51 0
-46 -31 -52 0
-46 -31 -53 0
-46 -31 -54 0
-46 -31 -55 0
-46 -31 -57 0
-46 -31 -59 0
-46 -32 -51 0
-46 -32 -52 0
-46 -32 -53 0
-46 -32 -54 0
-46 -32 -55 0
-46 -32 -58 0
-46 -32 -59 0
-47 -25 -51 0
-47 -25 -52 0
-47 -25 -53 0
-47 -25 -54 0
-47 -25 -55 0
-47 -25 -56 0
-47 -25 -57 0
-47 -25 -58 0
-47 -26 -51 0
-47 -26 -52 0
-47 -26 -53 0
-47 -26 -54 0
-47 -26 -55 0
-47 -26 -56 0
-47 -26 -59 0
-47 -27 -51 0
-47 -27 -52 0
-47 -27 -53 0
-47 -27 -54 0
-47 -27 -55 0
-47 -27 -58 0
-47 -27 -59 0
-47 -28 -51 0
-47 -28 -52 0
-47 -28 -53 0
-47 -28 -54 0
-47 -28 -55 0
-47 -28 -56 0
-47 -28 -57 0
-47 -29 -52 0
-47 -29 -53 0
-47 -29 -55 0
-47 -29 -56 0
-47 -29 -57 0
-47 -29 -58 0
-47 -29 -59 0
-47 -30 -51 0
-47 -30 -52 0
-47 -30 -55 0
-47 -30 -56 0
-47 -30 -57 0
-47 -30 -58 0
-47 -30 -59 0
-47 -31 -51 0
-47 -31 -52 0
-47 -31 -54 0
-47 -31 -56 0
-47 -31 -57 0
-47 -31 -58 0
-47 -31 -59 0
-47 -32 -51 0
-47 -32 -53 0
-47 -32 -54 0
-47 -32 -56 0
-47 -32 -57 0
-47 -32 -58 0
-47 -32 -59 0
-48 -25 -51 0
-48 -25 -52 0
-48 -25 -53 0
-48 -25 -54 0
-48 -25 -55 0
-48 -25 -56 0
-48 -25 -57 0
-48 -25 -59 0
-48 -26 -51 0
-48 -26 -52 0
-48 -26 -53 0
-48 -26 -54 0
-48 -26 -55 0
-48 -26 -57 0
-48 -26 -58 0
-48 -27 -51 0
-48 -27 -52 0
-48 -27 -53 0
-48 -27 -54 0
-48 -27 -55 0
-48 -27 -57 0
-48 -27 -59 0
-48 -28 -51 0
-48 -28 -52 0
-48 -28 -53 0
-48 -28 -54 0
-48 -28 -55 0
-48 -28 -56 0
-48 -28 -58 0
-48 -29 -51 0
-48 -29 -52 0
-48 -29 -55 0
-48 -29 -56 0
-48 -29 -57 0
-48 -29 -58 0
-48 -29 -59 0
-48 -30 -52 0
-48 -30 -53 0
-48 -30 -54 0
-48 -30 -56 0
-48 -30 -57 0
-48 -30 -58 0
-48 -30 -59 0
-48 -31 -51 0
-48 -31 -53 0
-48 -31 -55 0
-48 -31 -56 0
-48 -31 -57 0
-48 -31 -58 0
-48 -31 -59 0
-48 -32 -51 0
-48 -32 -52 0
-48 -32 -54 0
-48 -32 -56 0
-48 -32 -57 0
-48 -32 -58 0
-48 -32 -59 0
-49 -25 -51 0
-49 -25 -52 0
-49 -25 -53 0
-49 -25 -54 0
-49 -25 -55 0
-49 -25 -56 0
-49 -25 -58 0
-49 -25 -59 0
-49 -26 -51 0
-49 -26 -52 0
-49 -26 -53 0
-49 -26 -54 0
-49 -26 -55 0
-49 -26 -57 0
-49 -26 -58 0
-49 -27 -51 0
-49 -27 -52 0
-49 -27 -53 0
-49 -27 -54 0
-49 -27 -55 0
-49 -27 -56 0
-49 -27 -58 0
-49 -28 -51 0
-49 -28 -52 0
-49 -28 -53 0
-49 -28 -54 0
-49 -28 -55 0
-49 -28 -57 0
-49 -28 -59 0
-49 -29 -51 0
-49 -29 -52 0
-49 -29 -54 0
-49 -29 -56 0
-49 -29 -57 0
-49 -29 -58 0
-49 -29 -59 0
-49 -30 -51 0
-49 -30 -53 0
-49 -30 -55 0
-49 -30 -56 0
-49 -30 -57 0
-49 -30 -58 0
-49 -30 -59 0
-49 -31 -52 0
-49 -31 -53 0
-49 -31 -54 0
-49 -31 -56 0
-49 -31 -57 0
-49 -31 -58 0
-49 -31 -59 0
-49 -32 -51 0
-49 -32 -52 0
-49 -32 -55 0
-49 -32 -56 0
-49 -32 -57 0
-49 -32 -58 0
-49 -32 -59 0
-50 -25 -51 0
-50 -25 -52 0
-50 -25 -53 0
-50 -25 -54 0
-50 -25 -55 0
-50 -25 -57 0
-50 -25 -58 0
-50 -25 -59 0
-50 -26 -51 0
-50 -26 -52 0
-50 -26 -53 0
-50 -26 -54 0
-50 -26 -55 0
-50 -26 -56 0
-50 -26 -59 0
-50 -27 -51 0
-50 -27 -52 0
-50 -27 -53 0
-50 -27 -54 0
-50 -27 -55 0
-50 -27 -56 0
-50 -27 -57 0
-50 -28 -51 0
-50 -28 -52 0
-50 -28 -53 0
-50 -28 -54 0
-50 -28 -55 0
-50 -28 -58 0
-50 -28 -59 0
-50 -29 -51 0
-50 -29 -53 0
-50 -29 -54 0
-50 -29 -56 0
-50 -29 -57 0
-50 -29 -58 0
-50 -29 -59 0
-50 -30 -51 0
-50 -30 -52 0
-50 -30 -54 0
-50 -30 -56 0
-50 -30 -57 0
-50 -30 -58 0
-50 -30 -59 0
-50 -31 -51 0
-50 -31 -52 0
-50 -31 -55 0
-50 -31 -56 0
-50 -31 -57 0
-50 -31 -58 0
-50 -31 -59 0
-50 -32 -52 0
-50 -32 -53 0
-50 -32 -55 0
-50 -32 -56 0
-50 -32 -57 0
-50 -32 -58 0
-50 -32 -59 0
