c frozen sparse O-aware rational recursive S3 base
p cnf 55 128
1 2 3 4 0
-1 32 0
-2 33 0
-32 33 0
-2 -32 0
-3 34 0
-33 34 0
-3 -33 0
-4 -34 0
5 6 7 8 0
-5 35 0
-6 36 0
-35 36 0
-6 -35 0
-7 37 0
-36 37 0
-7 -36 0
-8 -37 0
9 10 11 12 0
-9 38 0
-10 39 0
-38 39 0
-10 -38 0
-11 40 0
-39 40 0
-11 -39 0
-12 -40 0
13 14 15 16 0
-13 41 0
-14 42 0
-41 42 0
-14 -41 0
-15 43 0
-42 43 0
-15 -42 0
-16 -43 0
17 18 19 20 21 0
-17 44 0
-18 45 0
-44 45 0
-18 -44 0
-19 46 0
-45 46 0
-19 -45 0
-20 47 0
-46 47 0
-20 -46 0
-21 -47 0
22 23 24 25 26 0
-22 48 0
-23 49 0
-48 49 0
-23 -48 0
-24 50 0
-49 50 0
-24 -49 0
-25 51 0
-50 51 0
-25 -50 0
-26 -51 0
27 28 29 30 31 0
-27 52 0
-28 53 0
-52 53 0
-28 -52 0
-29 54 0
-53 54 0
-29 -53 0
-30 55 0
-54 55 0
-30 -54 0
-31 -55 0
-1 -5 17 0
-1 -6 19 0
-1 -7 21 0
-1 -8 20 0
-2 -5 19 0
-2 -6 17 18 0
-2 -7 20 21 0
-2 -8 20 21 0
-3 -5 21 0
-3 -6 20 21 0
-3 -7 17 19 0
-3 -8 18 19 0
-4 -5 20 0
-4 -6 20 21 0
-4 -7 18 19 0
-4 -8 17 19 0
-17 -9 23 0
-17 -10 24 0
-17 -11 25 0
-17 -12 26 0
-18 -9 22 0
-18 -10 24 0
-18 -11 26 0
-18 -12 25 0
-19 -9 24 0
-19 -10 22 23 0
-19 -11 25 26 0
-19 -12 25 26 0
-20 -9 26 0
-20 -10 25 26 0
-20 -11 22 24 0
-20 -12 23 24 0
-21 -9 25 0
-21 -10 25 26 0
-21 -11 23 24 0
-21 -12 22 24 0
-22 -13 28 0
-22 -14 29 0
-22 -15 30 0
-22 -16 31 0
-23 -13 27 0
-23 -14 29 0
-23 -15 31 0
-23 -16 30 0
-24 -13 29 0
-24 -14 27 28 0
-24 -15 30 31 0
-24 -16 30 31 0
-25 -13 31 0
-25 -14 30 31 0
-25 -15 27 29 0
-25 -16 28 29 0
-26 -13 30 0
-26 -14 30 31 0
-26 -15 28 29 0
-26 -16 27 29 0
