c frozen sparse O-aware rational recursive S3 base
p cnf 35 61
1 2 0
-1 23 0
-2 -23 0
3 4 0
-3 24 0
-4 -24 0
5 6 0
-5 25 0
-6 -25 0
7 8 0
-7 26 0
-8 -26 0
9 10 0
-9 27 0
-10 -27 0
11 12 13 0
-11 28 0
-12 29 0
-28 29 0
-12 -28 0
-13 -29 0
14 15 16 0
-14 30 0
-15 31 0
-30 31 0
-15 -30 0
-16 -31 0
17 18 19 0
-17 32 0
-18 33 0
-32 33 0
-18 -32 0
-19 -33 0
20 21 22 0
-20 34 0
-21 35 0
-34 35 0
-21 -34 0
-22 -35 0
-1 -3 11 0
-1 -4 13 0
-2 -3 13 0
-2 -4 11 12 0
-11 -5 15 0
-11 -6 16 0
-12 -5 14 0
-12 -6 16 0
-13 -5 16 0
-13 -6 14 15 0
-14 -7 18 0
-14 -8 19 0
-15 -7 17 0
-15 -8 19 0
-16 -7 19 0
-16 -8 17 18 0
-17 -9 21 0
-17 -10 22 0
-18 -9 20 0
-18 -10 22 0
-19 -9 22 0
-19 -10 20 21 0
