p cnf 1311 4632
-1 -6 47 0
1 -47 0
6 -47 0
-1 -6 -16 48 0
1 -48 0
6 -48 0
16 -48 0
-1 -6 -17 49 0
1 -49 0
6 -49 0
17 -49 0
-1 -6 -18 50 0
1 -50 0
6 -50 0
18 -50 0
-1 -6 -19 51 0
1 -51 0
6 -51 0
19 -51 0
-1 -6 -20 52 0
1 -52 0
6 -52 0
20 -52 0
-1 -6 -21 53 0
1 -53 0
6 -53 0
21 -53 0
-1 -6 -22 54 0
1 -54 0
6 -54 0
22 -54 0
-1 -6 -23 55 0
1 -55 0
6 -55 0
23 -55 0
-1 -6 -24 56 0
1 -56 0
6 -56 0
24 -56 0
-1 -6 -25 57 0
1 -57 0
6 -57 0
25 -57 0
-1 -6 -26 58 0
1 -58 0
6 -58 0
26 -58 0
-1 -6 -27 59 0
1 -59 0
6 -59 0
27 -59 0
-1 -6 -28 60 0
1 -60 0
6 -60 0
28 -60 0
-1 -6 -29 61 0
1 -61 0
6 -61 0
29 -61 0
-1 -6 -30 62 0
1 -62 0
6 -62 0
30 -62 0
-1 -6 -31 63 0
1 -63 0
6 -63 0
31 -63 0
-1 -6 -32 64 0
1 -64 0
6 -64 0
32 -64 0
-1 -6 -33 65 0
1 -65 0
6 -65 0
33 -65 0
-1 -6 -34 66 0
1 -66 0
6 -66 0
34 -66 0
-1 -6 -35 67 0
1 -67 0
6 -67 0
35 -67 0
-1 -6 -36 68 0
1 -68 0
6 -68 0
36 -68 0
-1 -6 -37 69 0
1 -69 0
6 -69 0
37 -69 0
-1 -6 -38 70 0
1 -70 0
6 -70 0
38 -70 0
-1 -6 -39 71 0
1 -71 0
6 -71 0
39 -71 0
-1 -6 -40 72 0
1 -72 0
6 -72 0
40 -72 0
-1 -6 -41 73 0
1 -73 0
6 -73 0
41 -73 0
-1 -6 -42 74 0
1 -74 0
6 -74 0
42 -74 0
-1 -6 -43 75 0
1 -75 0
6 -75 0
43 -75 0
-1 -6 -44 76 0
1 -76 0
6 -76 0
44 -76 0
-1 -6 -45 77 0
1 -77 0
6 -77 0
45 -77 0
-1 -6 -46 78 0
1 -78 0
6 -78 0
46 -78 0
-1 -7 79 0
1 -79 0
7 -79 0
-1 -7 -16 80 0
1 -80 0
7 -80 0
16 -80 0
-1 -7 -17 81 0
1 -81 0
7 -81 0
17 -81 0
-1 -7 -18 82 0
1 -82 0
7 -82 0
18 -82 0
-1 -7 -19 83 0
1 -83 0
7 -83 0
19 -83 0
-1 -7 -20 84 0
1 -84 0
7 -84 0
20 -84 0
-1 -7 -21 85 0
1 -85 0
7 -85 0
21 -85 0
-1 -7 -22 86 0
1 -86 0
7 -86 0
22 -86 0
-1 -7 -23 87 0
1 -87 0
7 -87 0
23 -87 0
-1 -7 -24 88 0
1 -88 0
7 -88 0
24 -88 0
-1 -7 -25 89 0
1 -89 0
7 -89 0
25 -89 0
-1 -7 -26 90 0
1 -90 0
7 -90 0
26 -90 0
-1 -7 -27 91 0
1 -91 0
7 -91 0
27 -91 0
-1 -7 -28 92 0
1 -92 0
7 -92 0
28 -92 0
-1 -7 -29 93 0
1 -93 0
7 -93 0
29 -93 0
-1 -7 -30 94 0
1 -94 0
7 -94 0
30 -94 0
-1 -7 -31 95 0
1 -95 0
7 -95 0
31 -95 0
-1 -7 -32 96 0
1 -96 0
7 -96 0
32 -96 0
-1 -7 -33 97 0
1 -97 0
7 -97 0
33 -97 0
-1 -7 -34 98 0
1 -98 0
7 -98 0
34 -98 0
-1 -7 -35 99 0
1 -99 0
7 -99 0
35 -99 0
-1 -7 -36 100 0
1 -100 0
7 -100 0
36 -100 0
-1 -7 -37 101 0
1 -101 0
7 -101 0
37 -101 0
-1 -7 -38 102 0
1 -102 0
7 -102 0
38 -102 0
-1 -7 -39 103 0
1 -103 0
7 -103 0
39 -103 0
-1 -7 -40 104 0
1 -104 0
7 -104 0
40 -104 0
-1 -7 -41 105 0
1 -105 0
7 -105 0
41 -105 0
-1 -7 -42 106 0
1 -106 0
7 -106 0
42 -106 0
-1 -7 -43 107 0
1 -107 0
7 -107 0
43 -107 0
-1 -7 -44 108 0
1 -108 0
7 -108 0
44 -108 0
-1 -7 -45 109 0
1 -109 0
7 -109 0
45 -109 0
-1 -7 -46 110 0
1 -110 0
7 -110 0
46 -110 0
-1 -8 111 0
1 -111 0
8 -111 0
-1 -8 -16 112 0
1 -112 0
8 -112 0
16 -112 0
-1 -8 -17 113 0
1 -113 0
8 -113 0
17 -113 0
-1 -8 -18 114 0
1 -114 0
8 -114 0
18 -114 0
-1 -8 -19 115 0
1 -115 0
8 -115 0
19 -115 0
-1 -8 -20 116 0
1 -116 0
8 -116 0
20 -116 0
-1 -8 -21 117 0
1 -117 0
8 -117 0
21 -117 0
-1 -8 -22 118 0
1 -118 0
8 -118 0
22 -118 0
-1 -8 -23 119 0
1 -119 0
8 -119 0
23 -119 0
-1 -8 -24 120 0
1 -120 0
8 -120 0
24 -120 0
-1 -8 -25 121 0
1 -121 0
8 -121 0
25 -121 0
-1 -8 -26 122 0
1 -122 0
8 -122 0
26 -122 0
-1 -8 -27 123 0
1 -123 0
8 -123 0
27 -123 0
-1 -8 -28 124 0
1 -124 0
8 -124 0
28 -124 0
-1 -8 -29 125 0
1 -125 0
8 -125 0
29 -125 0
-1 -8 -30 126 0
1 -126 0
8 -126 0
30 -126 0
-1 -8 -31 127 0
1 -127 0
8 -127 0
31 -127 0
-1 -8 -32 128 0
1 -128 0
8 -128 0
32 -128 0
-1 -8 -33 129 0
1 -129 0
8 -129 0
33 -129 0
-1 -8 -34 130 0
1 -130 0
8 -130 0
34 -130 0
-1 -8 -35 131 0
1 -131 0
8 -131 0
35 -131 0
-1 -8 -36 132 0
1 -132 0
8 -132 0
36 -132 0
-1 -8 -37 133 0
1 -133 0
8 -133 0
37 -133 0
-1 -8 -38 134 0
1 -134 0
8 -134 0
38 -134 0
-1 -8 -39 135 0
1 -135 0
8 -135 0
39 -135 0
-1 -8 -40 136 0
1 -136 0
8 -136 0
40 -136 0
-1 -8 -41 137 0
1 -137 0
8 -137 0
41 -137 0
-1 -8 -42 138 0
1 -138 0
8 -138 0
42 -138 0
-1 -8 -43 139 0
1 -139 0
8 -139 0
43 -139 0
-1 -8 -44 140 0
1 -140 0
8 -140 0
44 -140 0
-1 -8 -45 141 0
1 -141 0
8 -141 0
45 -141 0
-1 -8 -46 142 0
1 -142 0
8 -142 0
46 -142 0
-1 -9 143 0
1 -143 0
9 -143 0
-1 -9 -16 144 0
1 -144 0
9 -144 0
16 -144 0
-1 -9 -17 145 0
1 -145 0
9 -145 0
17 -145 0
-1 -9 -18 146 0
1 -146 0
9 -146 0
18 -146 0
-1 -9 -19 147 0
1 -147 0
9 -147 0
19 -147 0
-1 -9 -20 148 0
1 -148 0
9 -148 0
20 -148 0
-1 -9 -21 149 0
1 -149 0
9 -149 0
21 -149 0
-1 -9 -22 150 0
1 -150 0
9 -150 0
22 -150 0
-1 -9 -23 151 0
1 -151 0
9 -151 0
23 -151 0
-1 -9 -24 152 0
1 -152 0
9 -152 0
24 -152 0
-1 -9 -25 153 0
1 -153 0
9 -153 0
25 -153 0
-1 -9 -26 154 0
1 -154 0
9 -154 0
26 -154 0
-1 -9 -27 155 0
1 -155 0
9 -155 0
27 -155 0
-1 -9 -28 156 0
1 -156 0
9 -156 0
28 -156 0
-1 -9 -29 157 0
1 -157 0
9 -157 0
29 -157 0
-1 -9 -30 158 0
1 -158 0
9 -158 0
30 -158 0
-1 -9 -31 159 0
1 -159 0
9 -159 0
31 -159 0
-1 -9 -32 160 0
1 -160 0
9 -160 0
32 -160 0
-1 -9 -33 161 0
1 -161 0
9 -161 0
33 -161 0
-1 -9 -34 162 0
1 -162 0
9 -162 0
34 -162 0
-1 -9 -35 163 0
1 -163 0
9 -163 0
35 -163 0
-1 -9 -36 164 0
1 -164 0
9 -164 0
36 -164 0
-1 -9 -37 165 0
1 -165 0
9 -165 0
37 -165 0
-1 -9 -38 166 0
1 -166 0
9 -166 0
38 -166 0
-1 -9 -39 167 0
1 -167 0
9 -167 0
39 -167 0
-1 -9 -40 168 0
1 -168 0
9 -168 0
40 -168 0
-1 -9 -41 169 0
1 -169 0
9 -169 0
41 -169 0
-1 -9 -42 170 0
1 -170 0
9 -170 0
42 -170 0
-1 -9 -43 171 0
1 -171 0
9 -171 0
43 -171 0
-1 -9 -44 172 0
1 -172 0
9 -172 0
44 -172 0
-1 -9 -45 173 0
1 -173 0
9 -173 0
45 -173 0
-1 -9 -46 174 0
1 -174 0
9 -174 0
46 -174 0
-1 -10 175 0
1 -175 0
10 -175 0
-1 -10 -16 176 0
1 -176 0
10 -176 0
16 -176 0
-1 -10 -17 177 0
1 -177 0
10 -177 0
17 -177 0
-1 -10 -18 178 0
1 -178 0
10 -178 0
18 -178 0
-1 -10 -19 179 0
1 -179 0
10 -179 0
19 -179 0
-1 -10 -20 180 0
1 -180 0
10 -180 0
20 -180 0
-1 -10 -21 181 0
1 -181 0
10 -181 0
21 -181 0
-1 -10 -22 182 0
1 -182 0
10 -182 0
22 -182 0
-1 -10 -23 183 0
1 -183 0
10 -183 0
23 -183 0
-1 -10 -24 184 0
1 -184 0
10 -184 0
24 -184 0
-1 -10 -25 185 0
1 -185 0
10 -185 0
25 -185 0
-1 -10 -26 186 0
1 -186 0
10 -186 0
26 -186 0
-1 -10 -27 187 0
1 -187 0
10 -187 0
27 -187 0
-1 -10 -28 188 0
1 -188 0
10 -188 0
28 -188 0
-1 -10 -29 189 0
1 -189 0
10 -189 0
29 -189 0
-1 -10 -30 190 0
1 -190 0
10 -190 0
30 -190 0
-1 -10 -31 191 0
1 -191 0
10 -191 0
31 -191 0
-1 -10 -32 192 0
1 -192 0
10 -192 0
32 -192 0
-1 -10 -33 193 0
1 -193 0
10 -193 0
33 -193 0
-1 -10 -34 194 0
1 -194 0
10 -194 0
34 -194 0
-1 -10 -35 195 0
1 -195 0
10 -195 0
35 -195 0
-1 -10 -36 196 0
1 -196 0
10 -196 0
36 -196 0
-1 -10 -37 197 0
1 -197 0
10 -197 0
37 -197 0
-1 -10 -38 198 0
1 -198 0
10 -198 0
38 -198 0
-1 -10 -39 199 0
1 -199 0
10 -199 0
39 -199 0
-1 -10 -40 200 0
1 -200 0
10 -200 0
40 -200 0
-1 -10 -41 201 0
1 -201 0
10 -201 0
41 -201 0
-1 -10 -42 202 0
1 -202 0
10 -202 0
42 -202 0
-1 -10 -43 203 0
1 -203 0
10 -203 0
43 -203 0
-1 -10 -44 204 0
1 -204 0
10 -204 0
44 -204 0
-1 -10 -45 205 0
1 -205 0
10 -205 0
45 -205 0
-1 -10 -46 206 0
1 -206 0
10 -206 0
46 -206 0
-1 -16 207 0
1 -207 0
16 -207 0
-1 -17 208 0
1 -208 0
17 -208 0
-1 -18 209 0
1 -209 0
18 -209 0
-1 -19 210 0
1 -210 0
19 -210 0
-1 -20 211 0
1 -211 0
20 -211 0
-1 -21 212 0
1 -212 0
21 -212 0
-1 -22 213 0
1 -213 0
22 -213 0
-1 -23 214 0
1 -214 0
23 -214 0
-1 -24 215 0
1 -215 0
24 -215 0
-1 -25 216 0
1 -216 0
25 -216 0
-1 -26 217 0
1 -217 0
26 -217 0
-1 -27 218 0
1 -218 0
27 -218 0
-1 -28 219 0
1 -219 0
28 -219 0
-1 -29 220 0
1 -220 0
29 -220 0
-1 -30 221 0
1 -221 0
30 -221 0
-1 -31 222 0
1 -222 0
31 -222 0
-1 -32 223 0
1 -223 0
32 -223 0
-1 -33 224 0
1 -224 0
33 -224 0
-1 -34 225 0
1 -225 0
34 -225 0
-1 -35 226 0
1 -226 0
35 -226 0
-1 -36 227 0
1 -227 0
36 -227 0
-1 -37 228 0
1 -228 0
37 -228 0
-1 -38 229 0
1 -229 0
38 -229 0
-1 -39 230 0
1 -230 0
39 -230 0
-1 -40 231 0
1 -231 0
40 -231 0
-1 -41 232 0
1 -232 0
41 -232 0
-1 -42 233 0
1 -233 0
42 -233 0
-1 -43 234 0
1 -234 0
43 -234 0
-1 -44 235 0
1 -235 0
44 -235 0
-1 -45 236 0
1 -236 0
45 -236 0
-1 -46 237 0
1 -237 0
46 -237 0
-2 -6 238 0
2 -238 0
6 -238 0
-2 -6 -16 239 0
2 -239 0
6 -239 0
16 -239 0
-2 -6 -17 240 0
2 -240 0
6 -240 0
17 -240 0
-2 -6 -18 241 0
2 -241 0
6 -241 0
18 -241 0
-2 -6 -19 242 0
2 -242 0
6 -242 0
19 -242 0
-2 -6 -20 243 0
2 -243 0
6 -243 0
20 -243 0
-2 -6 -21 244 0
2 -244 0
6 -244 0
21 -244 0
-2 -6 -22 245 0
2 -245 0
6 -245 0
22 -245 0
-2 -6 -23 246 0
2 -246 0
6 -246 0
23 -246 0
-2 -6 -24 247 0
2 -247 0
6 -247 0
24 -247 0
-2 -6 -25 248 0
2 -248 0
6 -248 0
25 -248 0
-2 -6 -26 249 0
2 -249 0
6 -249 0
26 -249 0
-2 -6 -27 250 0
2 -250 0
6 -250 0
27 -250 0
-2 -6 -28 251 0
2 -251 0
6 -251 0
28 -251 0
-2 -6 -29 252 0
2 -252 0
6 -252 0
29 -252 0
-2 -6 -30 253 0
2 -253 0
6 -253 0
30 -253 0
-2 -6 -31 254 0
2 -254 0
6 -254 0
31 -254 0
-2 -6 -32 255 0
2 -255 0
6 -255 0
32 -255 0
-2 -6 -33 256 0
2 -256 0
6 -256 0
33 -256 0
-2 -6 -34 257 0
2 -257 0
6 -257 0
34 -257 0
-2 -6 -35 258 0
2 -258 0
6 -258 0
35 -258 0
-2 -6 -36 259 0
2 -259 0
6 -259 0
36 -259 0
-2 -6 -37 260 0
2 -260 0
6 -260 0
37 -260 0
-2 -6 -38 261 0
2 -261 0
6 -261 0
38 -261 0
-2 -6 -39 262 0
2 -262 0
6 -262 0
39 -262 0
-2 -6 -40 263 0
2 -263 0
6 -263 0
40 -263 0
-2 -6 -41 264 0
2 -264 0
6 -264 0
41 -264 0
-2 -6 -42 265 0
2 -265 0
6 -265 0
42 -265 0
-2 -6 -43 266 0
2 -266 0
6 -266 0
43 -266 0
-2 -6 -44 267 0
2 -267 0
6 -267 0
44 -267 0
-2 -6 -45 268 0
2 -268 0
6 -268 0
45 -268 0
-2 -6 -46 269 0
2 -269 0
6 -269 0
46 -269 0
-2 -7 270 0
2 -270 0
7 -270 0
-2 -7 -16 271 0
2 -271 0
7 -271 0
16 -271 0
-2 -7 -17 272 0
2 -272 0
7 -272 0
17 -272 0
-2 -7 -18 273 0
2 -273 0
7 -273 0
18 -273 0
-2 -7 -19 274 0
2 -274 0
7 -274 0
19 -274 0
-2 -7 -20 275 0
2 -275 0
7 -275 0
20 -275 0
-2 -7 -21 276 0
2 -276 0
7 -276 0
21 -276 0
-2 -7 -22 277 0
2 -277 0
7 -277 0
22 -277 0
-2 -7 -23 278 0
2 -278 0
7 -278 0
23 -278 0
-2 -7 -24 279 0
2 -279 0
7 -279 0
24 -279 0
-2 -7 -25 280 0
2 -280 0
7 -280 0
25 -280 0
-2 -7 -26 281 0
2 -281 0
7 -281 0
26 -281 0
-2 -7 -27 282 0
2 -282 0
7 -282 0
27 -282 0
-2 -7 -28 283 0
2 -283 0
7 -283 0
28 -283 0
-2 -7 -29 284 0
2 -284 0
7 -284 0
29 -284 0
-2 -7 -30 285 0
2 -285 0
7 -285 0
30 -285 0
-2 -7 -31 286 0
2 -286 0
7 -286 0
31 -286 0
-2 -7 -32 287 0
2 -287 0
7 -287 0
32 -287 0
-2 -7 -33 288 0
2 -288 0
7 -288 0
33 -288 0
-2 -7 -34 289 0
2 -289 0
7 -289 0
34 -289 0
-2 -7 -35 290 0
2 -290 0
7 -290 0
35 -290 0
-2 -7 -36 291 0
2 -291 0
7 -291 0
36 -291 0
-2 -7 -37 292 0
2 -292 0
7 -292 0
37 -292 0
-2 -7 -38 293 0
2 -293 0
7 -293 0
38 -293 0
-2 -7 -39 294 0
2 -294 0
7 -294 0
39 -294 0
-2 -7 -40 295 0
2 -295 0
7 -295 0
40 -295 0
-2 -7 -41 296 0
2 -296 0
7 -296 0
41 -296 0
-2 -7 -42 297 0
2 -297 0
7 -297 0
42 -297 0
-2 -7 -43 298 0
2 -298 0
7 -298 0
43 -298 0
-2 -7 -44 299 0
2 -299 0
7 -299 0
44 -299 0
-2 -7 -45 300 0
2 -300 0
7 -300 0
45 -300 0
-2 -7 -46 301 0
2 -301 0
7 -301 0
46 -301 0
-2 -8 302 0
2 -302 0
8 -302 0
-2 -8 -16 303 0
2 -303 0
8 -303 0
16 -303 0
-2 -8 -17 304 0
2 -304 0
8 -304 0
17 -304 0
-2 -8 -18 305 0
2 -305 0
8 -305 0
18 -305 0
-2 -8 -19 306 0
2 -306 0
8 -306 0
19 -306 0
-2 -8 -20 307 0
2 -307 0
8 -307 0
20 -307 0
-2 -8 -21 308 0
2 -308 0
8 -308 0
21 -308 0
-2 -8 -22 309 0
2 -309 0
8 -309 0
22 -309 0
-2 -8 -23 310 0
2 -310 0
8 -310 0
23 -310 0
-2 -8 -24 311 0
2 -311 0
8 -311 0
24 -311 0
-2 -8 -25 312 0
2 -312 0
8 -312 0
25 -312 0
-2 -8 -26 313 0
2 -313 0
8 -313 0
26 -313 0
-2 -8 -27 314 0
2 -314 0
8 -314 0
27 -314 0
-2 -8 -28 315 0
2 -315 0
8 -315 0
28 -315 0
-2 -8 -29 316 0
2 -316 0
8 -316 0
29 -316 0
-2 -8 -30 317 0
2 -317 0
8 -317 0
30 -317 0
-2 -8 -31 318 0
2 -318 0
8 -318 0
31 -318 0
-2 -8 -32 319 0
2 -319 0
8 -319 0
32 -319 0
-2 -8 -33 320 0
2 -320 0
8 -320 0
33 -320 0
-2 -8 -34 321 0
2 -321 0
8 -321 0
34 -321 0
-2 -8 -35 322 0
2 -322 0
8 -322 0
35 -322 0
-2 -8 -36 323 0
2 -323 0
8 -323 0
36 -323 0
-2 -8 -37 324 0
2 -324 0
8 -324 0
37 -324 0
-2 -8 -38 325 0
2 -325 0
8 -325 0
38 -325 0
-2 -8 -39 326 0
2 -326 0
8 -326 0
39 -326 0
-2 -8 -40 327 0
2 -327 0
8 -327 0
40 -327 0
-2 -8 -41 328 0
2 -328 0
8 -328 0
41 -328 0
-2 -8 -42 329 0
2 -329 0
8 -329 0
42 -329 0
-2 -8 -43 330 0
2 -330 0
8 -330 0
43 -330 0
-2 -8 -44 331 0
2 -331 0
8 -331 0
44 -331 0
-2 -8 -45 332 0
2 -332 0
8 -332 0
45 -332 0
-2 -8 -46 333 0
2 -333 0
8 -333 0
46 -333 0
-2 -9 334 0
2 -334 0
9 -334 0
-2 -9 -16 335 0
2 -335 0
9 -335 0
16 -335 0
-2 -9 -17 336 0
2 -336 0
9 -336 0
17 -336 0
-2 -9 -18 337 0
2 -337 0
9 -337 0
18 -337 0
-2 -9 -19 338 0
2 -338 0
9 -338 0
19 -338 0
-2 -9 -20 339 0
2 -339 0
9 -339 0
20 -339 0
-2 -9 -21 340 0
2 -340 0
9 -340 0
21 -340 0
-2 -9 -22 341 0
2 -341 0
9 -341 0
22 -341 0
-2 -9 -23 342 0
2 -342 0
9 -342 0
23 -342 0
-2 -9 -24 343 0
2 -343 0
9 -343 0
24 -343 0
-2 -9 -25 344 0
2 -344 0
9 -344 0
25 -344 0
-2 -9 -26 345 0
2 -345 0
9 -345 0
26 -345 0
-2 -9 -27 346 0
2 -346 0
9 -346 0
27 -346 0
-2 -9 -28 347 0
2 -347 0
9 -347 0
28 -347 0
-2 -9 -29 348 0
2 -348 0
9 -348 0
29 -348 0
-2 -9 -30 349 0
2 -349 0
9 -349 0
30 -349 0
-2 -9 -31 350 0
2 -350 0
9 -350 0
31 -350 0
-2 -9 -32 351 0
2 -351 0
9 -351 0
32 -351 0
-2 -9 -33 352 0
2 -352 0
9 -352 0
33 -352 0
-2 -9 -34 353 0
2 -353 0
9 -353 0
34 -353 0
-2 -9 -35 354 0
2 -354 0
9 -354 0
35 -354 0
-2 -9 -36 355 0
2 -355 0
9 -355 0
36 -355 0
-2 -9 -37 356 0
2 -356 0
9 -356 0
37 -356 0
-2 -9 -38 357 0
2 -357 0
9 -357 0
38 -357 0
-2 -9 -39 358 0
2 -358 0
9 -358 0
39 -358 0
-2 -9 -40 359 0
2 -359 0
9 -359 0
40 -359 0
-2 -9 -41 360 0
2 -360 0
9 -360 0
41 -360 0
-2 -9 -42 361 0
2 -361 0
9 -361 0
42 -361 0
-2 -9 -43 362 0
2 -362 0
9 -362 0
43 -362 0
-2 -9 -44 363 0
2 -363 0
9 -363 0
44 -363 0
-2 -9 -45 364 0
2 -364 0
9 -364 0
45 -364 0
-2 -9 -46 365 0
2 -365 0
9 -365 0
46 -365 0
-2 -10 366 0
2 -366 0
10 -366 0
-2 -10 -16 367 0
2 -367 0
10 -367 0
16 -367 0
-2 -10 -17 368 0
2 -368 0
10 -368 0
17 -368 0
-2 -10 -18 369 0
2 -369 0
10 -369 0
18 -369 0
-2 -10 -19 370 0
2 -370 0
10 -370 0
19 -370 0
-2 -10 -20 371 0
2 -371 0
10 -371 0
20 -371 0
-2 -10 -21 372 0
2 -372 0
10 -372 0
21 -372 0
-2 -10 -22 373 0
2 -373 0
10 -373 0
22 -373 0
-2 -10 -23 374 0
2 -374 0
10 -374 0
23 -374 0
-2 -10 -24 375 0
2 -375 0
10 -375 0
24 -375 0
-2 -10 -25 376 0
2 -376 0
10 -376 0
25 -376 0
-2 -10 -26 377 0
2 -377 0
10 -377 0
26 -377 0
-2 -10 -27 378 0
2 -378 0
10 -378 0
27 -378 0
-2 -10 -28 379 0
2 -379 0
10 -379 0
28 -379 0
-2 -10 -29 380 0
2 -380 0
10 -380 0
29 -380 0
-2 -10 -30 381 0
2 -381 0
10 -381 0
30 -381 0
-2 -10 -31 382 0
2 -382 0
10 -382 0
31 -382 0
-2 -10 -32 383 0
2 -383 0
10 -383 0
32 -383 0
-2 -10 -33 384 0
2 -384 0
10 -384 0
33 -384 0
-2 -10 -34 385 0
2 -385 0
10 -385 0
34 -385 0
-2 -10 -35 386 0
2 -386 0
10 -386 0
35 -386 0
-2 -10 -36 387 0
2 -387 0
10 -387 0
36 -387 0
-2 -10 -37 388 0
2 -388 0
10 -388 0
37 -388 0
-2 -10 -38 389 0
2 -389 0
10 -389 0
38 -389 0
-2 -10 -39 390 0
2 -390 0
10 -390 0
39 -390 0
-2 -10 -40 391 0
2 -391 0
10 -391 0
40 -391 0
-2 -10 -41 392 0
2 -392 0
10 -392 0
41 -392 0
-2 -10 -42 393 0
2 -393 0
10 -393 0
42 -393 0
-2 -10 -43 394 0
2 -394 0
10 -394 0
43 -394 0
-2 -10 -44 395 0
2 -395 0
10 -395 0
44 -395 0
-2 -10 -45 396 0
2 -396 0
10 -396 0
45 -396 0
-2 -10 -46 397 0
2 -397 0
10 -397 0
46 -397 0
-2 -16 398 0
2 -398 0
16 -398 0
-2 -17 399 0
2 -399 0
17 -399 0
-2 -18 400 0
2 -400 0
18 -400 0
-2 -19 401 0
2 -401 0
19 -401 0
-2 -20 402 0
2 -402 0
20 -402 0
-2 -21 403 0
2 -403 0
21 -403 0
-2 -22 404 0
2 -404 0
22 -404 0
-2 -23 405 0
2 -405 0
23 -405 0
-2 -24 406 0
2 -406 0
24 -406 0
-2 -25 407 0
2 -407 0
25 -407 0
-2 -26 408 0
2 -408 0
26 -408 0
-2 -27 409 0
2 -409 0
27 -409 0
-2 -28 410 0
2 -410 0
28 -410 0
-2 -29 411 0
2 -411 0
29 -411 0
-2 -30 412 0
2 -412 0
30 -412 0
-2 -31 413 0
2 -413 0
31 -413 0
-2 -32 414 0
2 -414 0
32 -414 0
-2 -33 415 0
2 -415 0
33 -415 0
-2 -34 416 0
2 -416 0
34 -416 0
-2 -35 417 0
2 -417 0
35 -417 0
-2 -36 418 0
2 -418 0
36 -418 0
-2 -37 419 0
2 -419 0
37 -419 0
-2 -38 420 0
2 -420 0
38 -420 0
-2 -39 421 0
2 -421 0
39 -421 0
-2 -40 422 0
2 -422 0
40 -422 0
-2 -41 423 0
2 -423 0
41 -423 0
-2 -42 424 0
2 -424 0
42 -424 0
-2 -43 425 0
2 -425 0
43 -425 0
-2 -44 426 0
2 -426 0
44 -426 0
-2 -45 427 0
2 -427 0
45 -427 0
-2 -46 428 0
2 -428 0
46 -428 0
-3 -6 429 0
3 -429 0
6 -429 0
-3 -6 -16 430 0
3 -430 0
6 -430 0
16 -430 0
-3 -6 -17 431 0
3 -431 0
6 -431 0
17 -431 0
-3 -6 -18 432 0
3 -432 0
6 -432 0
18 -432 0
-3 -6 -19 433 0
3 -433 0
6 -433 0
19 -433 0
-3 -6 -20 434 0
3 -434 0
6 -434 0
20 -434 0
-3 -6 -21 435 0
3 -435 0
6 -435 0
21 -435 0
-3 -6 -22 436 0
3 -436 0
6 -436 0
22 -436 0
-3 -6 -23 437 0
3 -437 0
6 -437 0
23 -437 0
-3 -6 -24 438 0
3 -438 0
6 -438 0
24 -438 0
-3 -6 -25 439 0
3 -439 0
6 -439 0
25 -439 0
-3 -6 -26 440 0
3 -440 0
6 -440 0
26 -440 0
-3 -6 -27 441 0
3 -441 0
6 -441 0
27 -441 0
-3 -6 -28 442 0
3 -442 0
6 -442 0
28 -442 0
-3 -6 -29 443 0
3 -443 0
6 -443 0
29 -443 0
-3 -6 -30 444 0
3 -444 0
6 -444 0
30 -444 0
-3 -6 -31 445 0
3 -445 0
6 -445 0
31 -445 0
-3 -6 -32 446 0
3 -446 0
6 -446 0
32 -446 0
-3 -6 -33 447 0
3 -447 0
6 -447 0
33 -447 0
-3 -6 -34 448 0
3 -448 0
6 -448 0
34 -448 0
-3 -6 -35 449 0
3 -449 0
6 -449 0
35 -449 0
-3 -6 -36 450 0
3 -450 0
6 -450 0
36 -450 0
-3 -6 -37 451 0
3 -451 0
6 -451 0
37 -451 0
-3 -6 -38 452 0
3 -452 0
6 -452 0
38 -452 0
-3 -6 -39 453 0
3 -453 0
6 -453 0
39 -453 0
-3 -6 -40 454 0
3 -454 0
6 -454 0
40 -454 0
-3 -6 -41 455 0
3 -455 0
6 -455 0
41 -455 0
-3 -6 -42 456 0
3 -456 0
6 -456 0
42 -456 0
-3 -6 -43 457 0
3 -457 0
6 -457 0
43 -457 0
-3 -6 -44 458 0
3 -458 0
6 -458 0
44 -458 0
-3 -6 -45 459 0
3 -459 0
6 -459 0
45 -459 0
-3 -6 -46 460 0
3 -460 0
6 -460 0
46 -460 0
-3 -7 461 0
3 -461 0
7 -461 0
-3 -7 -16 462 0
3 -462 0
7 -462 0
16 -462 0
-3 -7 -17 463 0
3 -463 0
7 -463 0
17 -463 0
-3 -7 -18 464 0
3 -464 0
7 -464 0
18 -464 0
-3 -7 -19 465 0
3 -465 0
7 -465 0
19 -465 0
-3 -7 -20 466 0
3 -466 0
7 -466 0
20 -466 0
-3 -7 -21 467 0
3 -467 0
7 -467 0
21 -467 0
-3 -7 -22 468 0
3 -468 0
7 -468 0
22 -468 0
-3 -7 -23 469 0
3 -469 0
7 -469 0
23 -469 0
-3 -7 -24 470 0
3 -470 0
7 -470 0
24 -470 0
-3 -7 -25 471 0
3 -471 0
7 -471 0
25 -471 0
-3 -7 -26 472 0
3 -472 0
7 -472 0
26 -472 0
-3 -7 -27 473 0
3 -473 0
7 -473 0
27 -473 0
-3 -7 -28 474 0
3 -474 0
7 -474 0
28 -474 0
-3 -7 -29 475 0
3 -475 0
7 -475 0
29 -475 0
-3 -7 -30 476 0
3 -476 0
7 -476 0
30 -476 0
-3 -7 -31 477 0
3 -477 0
7 -477 0
31 -477 0
-3 -7 -32 478 0
3 -478 0
7 -478 0
32 -478 0
-3 -7 -33 479 0
3 -479 0
7 -479 0
33 -479 0
-3 -7 -34 480 0
3 -480 0
7 -480 0
34 -480 0
-3 -7 -35 481 0
3 -481 0
7 -481 0
35 -481 0
-3 -7 -36 482 0
3 -482 0
7 -482 0
36 -482 0
-3 -7 -37 483 0
3 -483 0
7 -483 0
37 -483 0
-3 -7 -38 484 0
3 -484 0
7 -484 0
38 -484 0
-3 -7 -39 485 0
3 -485 0
7 -485 0
39 -485 0
-3 -7 -40 486 0
3 -486 0
7 -486 0
40 -486 0
-3 -7 -41 487 0
3 -487 0
7 -487 0
41 -487 0
-3 -7 -42 488 0
3 -488 0
7 -488 0
42 -488 0
-3 -7 -43 489 0
3 -489 0
7 -489 0
43 -489 0
-3 -7 -44 490 0
3 -490 0
7 -490 0
44 -490 0
-3 -7 -45 491 0
3 -491 0
7 -491 0
45 -491 0
-3 -7 -46 492 0
3 -492 0
7 -492 0
46 -492 0
-3 -8 493 0
3 -493 0
8 -493 0
-3 -8 -16 494 0
3 -494 0
8 -494 0
16 -494 0
-3 -8 -17 495 0
3 -495 0
8 -495 0
17 -495 0
-3 -8 -18 496 0
3 -496 0
8 -496 0
18 -496 0
-3 -8 -19 497 0
3 -497 0
8 -497 0
19 -497 0
-3 -8 -20 498 0
3 -498 0
8 -498 0
20 -498 0
-3 -8 -21 499 0
3 -499 0
8 -499 0
21 -499 0
-3 -8 -22 500 0
3 -500 0
8 -500 0
22 -500 0
-3 -8 -23 501 0
3 -501 0
8 -501 0
23 -501 0
-3 -8 -24 502 0
3 -502 0
8 -502 0
24 -502 0
-3 -8 -25 503 0
3 -503 0
8 -503 0
25 -503 0
-3 -8 -26 504 0
3 -504 0
8 -504 0
26 -504 0
-3 -8 -27 505 0
3 -505 0
8 -505 0
27 -505 0
-3 -8 -28 506 0
3 -506 0
8 -506 0
28 -506 0
-3 -8 -29 507 0
3 -507 0
8 -507 0
29 -507 0
-3 -8 -30 508 0
3 -508 0
8 -508 0
30 -508 0
-3 -8 -31 509 0
3 -509 0
8 -509 0
31 -509 0
-3 -8 -32 510 0
3 -510 0
8 -510 0
32 -510 0
-3 -8 -33 511 0
3 -511 0
8 -511 0
33 -511 0
-3 -8 -34 512 0
3 -512 0
8 -512 0
34 -512 0
-3 -8 -35 513 0
3 -513 0
8 -513 0
35 -513 0
-3 -8 -36 514 0
3 -514 0
8 -514 0
36 -514 0
-3 -8 -37 515 0
3 -515 0
8 -515 0
37 -515 0
-3 -8 -38 516 0
3 -516 0
8 -516 0
38 -516 0
-3 -8 -39 517 0
3 -517 0
8 -517 0
39 -517 0
-3 -8 -40 518 0
3 -518 0
8 -518 0
40 -518 0
-3 -8 -41 519 0
3 -519 0
8 -519 0
41 -519 0
-3 -8 -42 520 0
3 -520 0
8 -520 0
42 -520 0
-3 -8 -43 521 0
3 -521 0
8 -521 0
43 -521 0
-3 -8 -44 522 0
3 -522 0
8 -522 0
44 -522 0
-3 -8 -45 523 0
3 -523 0
8 -523 0
45 -523 0
-3 -8 -46 524 0
3 -524 0
8 -524 0
46 -524 0
-3 -9 525 0
3 -525 0
9 -525 0
-3 -9 -16 526 0
3 -526 0
9 -526 0
16 -526 0
-3 -9 -17 527 0
3 -527 0
9 -527 0
17 -527 0
-3 -9 -18 528 0
3 -528 0
9 -528 0
18 -528 0
-3 -9 -19 529 0
3 -529 0
9 -529 0
19 -529 0
-3 -9 -20 530 0
3 -530 0
9 -530 0
20 -530 0
-3 -9 -21 531 0
3 -531 0
9 -531 0
21 -531 0
-3 -9 -22 532 0
3 -532 0
9 -532 0
22 -532 0
-3 -9 -23 533 0
3 -533 0
9 -533 0
23 -533 0
-3 -9 -24 534 0
3 -534 0
9 -534 0
24 -534 0
-3 -9 -25 535 0
3 -535 0
9 -535 0
25 -535 0
-3 -9 -26 536 0
3 -536 0
9 -536 0
26 -536 0
-3 -9 -27 537 0
3 -537 0
9 -537 0
27 -537 0
-3 -9 -28 538 0
3 -538 0
9 -538 0
28 -538 0
-3 -9 -29 539 0
3 -539 0
9 -539 0
29 -539 0
-3 -9 -30 540 0
3 -540 0
9 -540 0
30 -540 0
-3 -9 -31 541 0
3 -541 0
9 -541 0
31 -541 0
-3 -9 -32 542 0
3 -542 0
9 -542 0
32 -542 0
-3 -9 -33 543 0
3 -543 0
9 -543 0
33 -543 0
-3 -9 -34 544 0
3 -544 0
9 -544 0
34 -544 0
-3 -9 -35 545 0
3 -545 0
9 -545 0
35 -545 0
-3 -9 -36 546 0
3 -546 0
9 -546 0
36 -546 0
-3 -9 -37 547 0
3 -547 0
9 -547 0
37 -547 0
-3 -9 -38 548 0
3 -548 0
9 -548 0
38 -548 0
-3 -9 -39 549 0
3 -549 0
9 -549 0
39 -549 0
-3 -9 -40 550 0
3 -550 0
9 -550 0
40 -550 0
-3 -9 -41 551 0
3 -551 0
9 -551 0
41 -551 0
-3 -9 -42 552 0
3 -552 0
9 -552 0
42 -552 0
-3 -9 -43 553 0
3 -553 0
9 -553 0
43 -553 0
-3 -9 -44 554 0
3 -554 0
9 -554 0
44 -554 0
-3 -9 -45 555 0
3 -555 0
9 -555 0
45 -555 0
-3 -9 -46 556 0
3 -556 0
9 -556 0
46 -556 0
-3 -10 557 0
3 -557 0
10 -557 0
-3 -10 -16 558 0
3 -558 0
10 -558 0
16 -558 0
-3 -10 -17 559 0
3 -559 0
10 -559 0
17 -559 0
-3 -10 -18 560 0
3 -560 0
10 -560 0
18 -560 0
-3 -10 -19 561 0
3 -561 0
10 -561 0
19 -561 0
-3 -10 -20 562 0
3 -562 0
10 -562 0
20 -562 0
-3 -10 -21 563 0
3 -563 0
10 -563 0
21 -563 0
-3 -10 -22 564 0
3 -564 0
10 -564 0
22 -564 0
-3 -10 -23 565 0
3 -565 0
10 -565 0
23 -565 0
-3 -10 -24 566 0
3 -566 0
10 -566 0
24 -566 0
-3 -10 -25 567 0
3 -567 0
10 -567 0
25 -567 0
-3 -10 -26 568 0
3 -568 0
10 -568 0
26 -568 0
-3 -10 -27 569 0
3 -569 0
10 -569 0
27 -569 0
-3 -10 -28 570 0
3 -570 0
10 -570 0
28 -570 0
-3 -10 -29 571 0
3 -571 0
10 -571 0
29 -571 0
-3 -10 -30 572 0
3 -572 0
10 -572 0
30 -572 0
-3 -10 -31 573 0
3 -573 0
10 -573 0
31 -573 0
-3 -10 -32 574 0
3 -574 0
10 -574 0
32 -574 0
-3 -10 -33 575 0
3 -575 0
10 -575 0
33 -575 0
-3 -10 -34 576 0
3 -576 0
10 -576 0
34 -576 0
-3 -10 -35 577 0
3 -577 0
10 -577 0
35 -577 0
-3 -10 -36 578 0
3 -578 0
10 -578 0
36 -578 0
-3 -10 -37 579 0
3 -579 0
10 -579 0
37 -579 0
-3 -10 -38 580 0
3 -580 0
10 -580 0
38 -580 0
-3 -10 -39 581 0
3 -581 0
10 -581 0
39 -581 0
-3 -10 -40 582 0
3 -582 0
10 -582 0
40 -582 0
-3 -10 -41 583 0
3 -583 0
10 -583 0
41 -583 0
-3 -10 -42 584 0
3 -584 0
10 -584 0
42 -584 0
-3 -10 -43 585 0
3 -585 0
10 -585 0
43 -585 0
-3 -10 -44 586 0
3 -586 0
10 -586 0
44 -586 0
-3 -10 -45 587 0
3 -587 0
10 -587 0
45 -587 0
-3 -10 -46 588 0
3 -588 0
10 -588 0
46 -588 0
-3 -16 589 0
3 -589 0
16 -589 0
-3 -17 590 0
3 -590 0
17 -590 0
-3 -18 591 0
3 -591 0
18 -591 0
-3 -19 592 0
3 -592 0
19 -592 0
-3 -20 593 0
3 -593 0
20 -593 0
-3 -21 594 0
3 -594 0
21 -594 0
-3 -22 595 0
3 -595 0
22 -595 0
-3 -23 596 0
3 -596 0
23 -596 0
-3 -24 597 0
3 -597 0
24 -597 0
-3 -25 598 0
3 -598 0
25 -598 0
-3 -26 599 0
3 -599 0
26 -599 0
-3 -27 600 0
3 -600 0
27 -600 0
-3 -28 601 0
3 -601 0
28 -601 0
-3 -29 602 0
3 -602 0
29 -602 0
-3 -30 603 0
3 -603 0
30 -603 0
-3 -31 604 0
3 -604 0
31 -604 0
-3 -32 605 0
3 -605 0
32 -605 0
-3 -33 606 0
3 -606 0
33 -606 0
-3 -34 607 0
3 -607 0
34 -607 0
-3 -35 608 0
3 -608 0
35 -608 0
-3 -36 609 0
3 -609 0
36 -609 0
-3 -37 610 0
3 -610 0
37 -610 0
-3 -38 611 0
3 -611 0
38 -611 0
-3 -39 612 0
3 -612 0
39 -612 0
-3 -40 613 0
3 -613 0
40 -613 0
-3 -41 614 0
3 -614 0
41 -614 0
-3 -42 615 0
3 -615 0
42 -615 0
-3 -43 616 0
3 -616 0
43 -616 0
-3 -44 617 0
3 -617 0
44 -617 0
-3 -45 618 0
3 -618 0
45 -618 0
-3 -46 619 0
3 -619 0
46 -619 0
-4 -6 620 0
4 -620 0
6 -620 0
-4 -6 -16 621 0
4 -621 0
6 -621 0
16 -621 0
-4 -6 -17 622 0
4 -622 0
6 -622 0
17 -622 0
-4 -6 -18 623 0
4 -623 0
6 -623 0
18 -623 0
-4 -6 -19 624 0
4 -624 0
6 -624 0
19 -624 0
-4 -6 -20 625 0
4 -625 0
6 -625 0
20 -625 0
-4 -6 -21 626 0
4 -626 0
6 -626 0
21 -626 0
-4 -6 -22 627 0
4 -627 0
6 -627 0
22 -627 0
-4 -6 -23 628 0
4 -628 0
6 -628 0
23 -628 0
-4 -6 -24 629 0
4 -629 0
6 -629 0
24 -629 0
-4 -6 -25 630 0
4 -630 0
6 -630 0
25 -630 0
-4 -6 -26 631 0
4 -631 0
6 -631 0
26 -631 0
-4 -6 -27 632 0
4 -632 0
6 -632 0
27 -632 0
-4 -6 -28 633 0
4 -633 0
6 -633 0
28 -633 0
-4 -6 -29 634 0
4 -634 0
6 -634 0
29 -634 0
-4 -6 -30 635 0
4 -635 0
6 -635 0
30 -635 0
-4 -6 -31 636 0
4 -636 0
6 -636 0
31 -636 0
-4 -6 -32 637 0
4 -637 0
6 -637 0
32 -637 0
-4 -6 -33 638 0
4 -638 0
6 -638 0
33 -638 0
-4 -6 -34 639 0
4 -639 0
6 -639 0
34 -639 0
-4 -6 -35 640 0
4 -640 0
6 -640 0
35 -640 0
-4 -6 -36 641 0
4 -641 0
6 -641 0
36 -641 0
-4 -6 -37 642 0
4 -642 0
6 -642 0
37 -642 0
-4 -6 -38 643 0
4 -643 0
6 -643 0
38 -643 0
-4 -6 -39 644 0
4 -644 0
6 -644 0
39 -644 0
-4 -6 -40 645 0
4 -645 0
6 -645 0
40 -645 0
-4 -6 -41 646 0
4 -646 0
6 -646 0
41 -646 0
-4 -6 -42 647 0
4 -647 0
6 -647 0
42 -647 0
-4 -6 -43 648 0
4 -648 0
6 -648 0
43 -648 0
-4 -6 -44 649 0
4 -649 0
6 -649 0
44 -649 0
-4 -6 -45 650 0
4 -650 0
6 -650 0
45 -650 0
-4 -6 -46 651 0
4 -651 0
6 -651 0
46 -651 0
-4 -7 652 0
4 -652 0
7 -652 0
-4 -7 -16 653 0
4 -653 0
7 -653 0
16 -653 0
-4 -7 -17 654 0
4 -654 0
7 -654 0
17 -654 0
-4 -7 -18 655 0
4 -655 0
7 -655 0
18 -655 0
-4 -7 -19 656 0
4 -656 0
7 -656 0
19 -656 0
-4 -7 -20 657 0
4 -657 0
7 -657 0
20 -657 0
-4 -7 -21 658 0
4 -658 0
7 -658 0
21 -658 0
-4 -7 -22 659 0
4 -659 0
7 -659 0
22 -659 0
-4 -7 -23 660 0
4 -660 0
7 -660 0
23 -660 0
-4 -7 -24 661 0
4 -661 0
7 -661 0
24 -661 0
-4 -7 -25 662 0
4 -662 0
7 -662 0
25 -662 0
-4 -7 -26 663 0
4 -663 0
7 -663 0
26 -663 0
-4 -7 -27 664 0
4 -664 0
7 -664 0
27 -664 0
-4 -7 -28 665 0
4 -665 0
7 -665 0
28 -665 0
-4 -7 -29 666 0
4 -666 0
7 -666 0
29 -666 0
-4 -7 -30 667 0
4 -667 0
7 -667 0
30 -667 0
-4 -7 -31 668 0
4 -668 0
7 -668 0
31 -668 0
-4 -7 -32 669 0
4 -669 0
7 -669 0
32 -669 0
-4 -7 -33 670 0
4 -670 0
7 -670 0
33 -670 0
-4 -7 -34 671 0
4 -671 0
7 -671 0
34 -671 0
-4 -7 -35 672 0
4 -672 0
7 -672 0
35 -672 0
-4 -7 -36 673 0
4 -673 0
7 -673 0
36 -673 0
-4 -7 -37 674 0
4 -674 0
7 -674 0
37 -674 0
-4 -7 -38 675 0
4 -675 0
7 -675 0
38 -675 0
-4 -7 -39 676 0
4 -676 0
7 -676 0
39 -676 0
-4 -7 -40 677 0
4 -677 0
7 -677 0
40 -677 0
-4 -7 -41 678 0
4 -678 0
7 -678 0
41 -678 0
-4 -7 -42 679 0
4 -679 0
7 -679 0
42 -679 0
-4 -7 -43 680 0
4 -680 0
7 -680 0
43 -680 0
-4 -7 -44 681 0
4 -681 0
7 -681 0
44 -681 0
-4 -7 -45 682 0
4 -682 0
7 -682 0
45 -682 0
-4 -7 -46 683 0
4 -683 0
7 -683 0
46 -683 0
-4 -8 684 0
4 -684 0
8 -684 0
-4 -8 -16 685 0
4 -685 0
8 -685 0
16 -685 0
-4 -8 -17 686 0
4 -686 0
8 -686 0
17 -686 0
-4 -8 -18 687 0
4 -687 0
8 -687 0
18 -687 0
-4 -8 -19 688 0
4 -688 0
8 -688 0
19 -688 0
-4 -8 -20 689 0
4 -689 0
8 -689 0
20 -689 0
-4 -8 -21 690 0
4 -690 0
8 -690 0
21 -690 0
-4 -8 -22 691 0
4 -691 0
8 -691 0
22 -691 0
-4 -8 -23 692 0
4 -692 0
8 -692 0
23 -692 0
-4 -8 -24 693 0
4 -693 0
8 -693 0
24 -693 0
-4 -8 -25 694 0
4 -694 0
8 -694 0
25 -694 0
-4 -8 -26 695 0
4 -695 0
8 -695 0
26 -695 0
-4 -8 -27 696 0
4 -696 0
8 -696 0
27 -696 0
-4 -8 -28 697 0
4 -697 0
8 -697 0
28 -697 0
-4 -8 -29 698 0
4 -698 0
8 -698 0
29 -698 0
-4 -8 -30 699 0
4 -699 0
8 -699 0
30 -699 0
-4 -8 -31 700 0
4 -700 0
8 -700 0
31 -700 0
-4 -8 -32 701 0
4 -701 0
8 -701 0
32 -701 0
-4 -8 -33 702 0
4 -702 0
8 -702 0
33 -702 0
-4 -8 -34 703 0
4 -703 0
8 -703 0
34 -703 0
-4 -8 -35 704 0
4 -704 0
8 -704 0
35 -704 0
-4 -8 -36 705 0
4 -705 0
8 -705 0
36 -705 0
-4 -8 -37 706 0
4 -706 0
8 -706 0
37 -706 0
-4 -8 -38 707 0
4 -707 0
8 -707 0
38 -707 0
-4 -8 -39 708 0
4 -708 0
8 -708 0
39 -708 0
-4 -8 -40 709 0
4 -709 0
8 -709 0
40 -709 0
-4 -8 -41 710 0
4 -710 0
8 -710 0
41 -710 0
-4 -8 -42 711 0
4 -711 0
8 -711 0
42 -711 0
-4 -8 -43 712 0
4 -712 0
8 -712 0
43 -712 0
-4 -8 -44 713 0
4 -713 0
8 -713 0
44 -713 0
-4 -8 -45 714 0
4 -714 0
8 -714 0
45 -714 0
-4 -8 -46 715 0
4 -715 0
8 -715 0
46 -715 0
-4 -9 716 0
4 -716 0
9 -716 0
-4 -9 -16 717 0
4 -717 0
9 -717 0
16 -717 0
-4 -9 -17 718 0
4 -718 0
9 -718 0
17 -718 0
-4 -9 -18 719 0
4 -719 0
9 -719 0
18 -719 0
-4 -9 -19 720 0
4 -720 0
9 -720 0
19 -720 0
-4 -9 -20 721 0
4 -721 0
9 -721 0
20 -721 0
-4 -9 -21 722 0
4 -722 0
9 -722 0
21 -722 0
-4 -9 -22 723 0
4 -723 0
9 -723 0
22 -723 0
-4 -9 -23 724 0
4 -724 0
9 -724 0
23 -724 0
-4 -9 -24 725 0
4 -725 0
9 -725 0
24 -725 0
-4 -9 -25 726 0
4 -726 0
9 -726 0
25 -726 0
-4 -9 -26 727 0
4 -727 0
9 -727 0
26 -727 0
-4 -9 -27 728 0
4 -728 0
9 -728 0
27 -728 0
-4 -9 -28 729 0
4 -729 0
9 -729 0
28 -729 0
-4 -9 -29 730 0
4 -730 0
9 -730 0
29 -730 0
-4 -9 -30 731 0
4 -731 0
9 -731 0
30 -731 0
-4 -9 -31 732 0
4 -732 0
9 -732 0
31 -732 0
-4 -9 -32 733 0
4 -733 0
9 -733 0
32 -733 0
-4 -9 -33 734 0
4 -734 0
9 -734 0
33 -734 0
-4 -9 -34 735 0
4 -735 0
9 -735 0
34 -735 0
-4 -9 -35 736 0
4 -736 0
9 -736 0
35 -736 0
-4 -9 -36 737 0
4 -737 0
9 -737 0
36 -737 0
-4 -9 -37 738 0
4 -738 0
9 -738 0
37 -738 0
-4 -9 -38 739 0
4 -739 0
9 -739 0
38 -739 0
-4 -9 -39 740 0
4 -740 0
9 -740 0
39 -740 0
-4 -9 -40 741 0
4 -741 0
9 -741 0
40 -741 0
-4 -9 -41 742 0
4 -742 0
9 -742 0
41 -742 0
-4 -9 -42 743 0
4 -743 0
9 -743 0
42 -743 0
-4 -9 -43 744 0
4 -744 0
9 -744 0
43 -744 0
-4 -9 -44 745 0
4 -745 0
9 -745 0
44 -745 0
-4 -9 -45 746 0
4 -746 0
9 -746 0
45 -746 0
-4 -9 -46 747 0
4 -747 0
9 -747 0
46 -747 0
-4 -10 748 0
4 -748 0
10 -748 0
-4 -10 -16 749 0
4 -749 0
10 -749 0
16 -749 0
-4 -10 -17 750 0
4 -750 0
10 -750 0
17 -750 0
-4 -10 -18 751 0
4 -751 0
10 -751 0
18 -751 0
-4 -10 -19 752 0
4 -752 0
10 -752 0
19 -752 0
-4 -10 -20 753 0
4 -753 0
10 -753 0
20 -753 0
-4 -10 -21 754 0
4 -754 0
10 -754 0
21 -754 0
-4 -10 -22 755 0
4 -755 0
10 -755 0
22 -755 0
-4 -10 -23 756 0
4 -756 0
10 -756 0
23 -756 0
-4 -10 -24 757 0
4 -757 0
10 -757 0
24 -757 0
-4 -10 -25 758 0
4 -758 0
10 -758 0
25 -758 0
-4 -10 -26 759 0
4 -759 0
10 -759 0
26 -759 0
-4 -10 -27 760 0
4 -760 0
10 -760 0
27 -760 0
-4 -10 -28 761 0
4 -761 0
10 -761 0
28 -761 0
-4 -10 -29 762 0
4 -762 0
10 -762 0
29 -762 0
-4 -10 -30 763 0
4 -763 0
10 -763 0
30 -763 0
-4 -10 -31 764 0
4 -764 0
10 -764 0
31 -764 0
-4 -10 -32 765 0
4 -765 0
10 -765 0
32 -765 0
-4 -10 -33 766 0
4 -766 0
10 -766 0
33 -766 0
-4 -10 -34 767 0
4 -767 0
10 -767 0
34 -767 0
-4 -10 -35 768 0
4 -768 0
10 -768 0
35 -768 0
-4 -10 -36 769 0
4 -769 0
10 -769 0
36 -769 0
-4 -10 -37 770 0
4 -770 0
10 -770 0
37 -770 0
-4 -10 -38 771 0
4 -771 0
10 -771 0
38 -771 0
-4 -10 -39 772 0
4 -772 0
10 -772 0
39 -772 0
-4 -10 -40 773 0
4 -773 0
10 -773 0
40 -773 0
-4 -10 -41 774 0
4 -774 0
10 -774 0
41 -774 0
-4 -10 -42 775 0
4 -775 0
10 -775 0
42 -775 0
-4 -10 -43 776 0
4 -776 0
10 -776 0
43 -776 0
-4 -10 -44 777 0
4 -777 0
10 -777 0
44 -777 0
-4 -10 -45 778 0
4 -778 0
10 -778 0
45 -778 0
-4 -10 -46 779 0
4 -779 0
10 -779 0
46 -779 0
-4 -16 780 0
4 -780 0
16 -780 0
-4 -17 781 0
4 -781 0
17 -781 0
-4 -18 782 0
4 -782 0
18 -782 0
-4 -19 783 0
4 -783 0
19 -783 0
-4 -20 784 0
4 -784 0
20 -784 0
-4 -21 785 0
4 -785 0
21 -785 0
-4 -22 786 0
4 -786 0
22 -786 0
-4 -23 787 0
4 -787 0
23 -787 0
-4 -24 788 0
4 -788 0
24 -788 0
-4 -25 789 0
4 -789 0
25 -789 0
-4 -26 790 0
4 -790 0
26 -790 0
-4 -27 791 0
4 -791 0
27 -791 0
-4 -28 792 0
4 -792 0
28 -792 0
-4 -29 793 0
4 -793 0
29 -793 0
-4 -30 794 0
4 -794 0
30 -794 0
-4 -31 795 0
4 -795 0
31 -795 0
-4 -32 796 0
4 -796 0
32 -796 0
-4 -33 797 0
4 -797 0
33 -797 0
-4 -34 798 0
4 -798 0
34 -798 0
-4 -35 799 0
4 -799 0
35 -799 0
-4 -36 800 0
4 -800 0
36 -800 0
-4 -37 801 0
4 -801 0
37 -801 0
-4 -38 802 0
4 -802 0
38 -802 0
-4 -39 803 0
4 -803 0
39 -803 0
-4 -40 804 0
4 -804 0
40 -804 0
-4 -41 805 0
4 -805 0
41 -805 0
-4 -42 806 0
4 -806 0
42 -806 0
-4 -43 807 0
4 -807 0
43 -807 0
-4 -44 808 0
4 -808 0
44 -808 0
-4 -45 809 0
4 -809 0
45 -809 0
-4 -46 810 0
4 -810 0
46 -810 0
-5 -6 811 0
5 -811 0
6 -811 0
-5 -6 -16 812 0
5 -812 0
6 -812 0
16 -812 0
-5 -6 -17 813 0
5 -813 0
6 -813 0
17 -813 0
-5 -6 -18 814 0
5 -814 0
6 -814 0
18 -814 0
-5 -6 -19 815 0
5 -815 0
6 -815 0
19 -815 0
-5 -6 -20 816 0
5 -816 0
6 -816 0
20 -816 0
-5 -6 -21 817 0
5 -817 0
6 -817 0
21 -817 0
-5 -6 -22 818 0
5 -818 0
6 -818 0
22 -818 0
-5 -6 -23 819 0
5 -819 0
6 -819 0
23 -819 0
-5 -6 -24 820 0
5 -820 0
6 -820 0
24 -820 0
-5 -6 -25 821 0
5 -821 0
6 -821 0
25 -821 0
-5 -6 -26 822 0
5 -822 0
6 -822 0
26 -822 0
-5 -6 -27 823 0
5 -823 0
6 -823 0
27 -823 0
-5 -6 -28 824 0
5 -824 0
6 -824 0
28 -824 0
-5 -6 -29 825 0
5 -825 0
6 -825 0
29 -825 0
-5 -6 -30 826 0
5 -826 0
6 -826 0
30 -826 0
-5 -6 -31 827 0
5 -827 0
6 -827 0
31 -827 0
-5 -6 -32 828 0
5 -828 0
6 -828 0
32 -828 0
-5 -6 -33 829 0
5 -829 0
6 -829 0
33 -829 0
-5 -6 -34 830 0
5 -830 0
6 -830 0
34 -830 0
-5 -6 -35 831 0
5 -831 0
6 -831 0
35 -831 0
-5 -6 -36 832 0
5 -832 0
6 -832 0
36 -832 0
-5 -6 -37 833 0
5 -833 0
6 -833 0
37 -833 0
-5 -6 -38 834 0
5 -834 0
6 -834 0
38 -834 0
-5 -6 -39 835 0
5 -835 0
6 -835 0
39 -835 0
-5 -6 -40 836 0
5 -836 0
6 -836 0
40 -836 0
-5 -6 -41 837 0
5 -837 0
6 -837 0
41 -837 0
-5 -6 -42 838 0
5 -838 0
6 -838 0
42 -838 0
-5 -6 -43 839 0
5 -839 0
6 -839 0
43 -839 0
-5 -6 -44 840 0
5 -840 0
6 -840 0
44 -840 0
-5 -6 -45 841 0
5 -841 0
6 -841 0
45 -841 0
-5 -6 -46 842 0
5 -842 0
6 -842 0
46 -842 0
-5 -7 843 0
5 -843 0
7 -843 0
-5 -7 -16 844 0
5 -844 0
7 -844 0
16 -844 0
-5 -7 -17 845 0
5 -845 0
7 -845 0
17 -845 0
-5 -7 -18 846 0
5 -846 0
7 -846 0
18 -846 0
-5 -7 -19 847 0
5 -847 0
7 -847 0
19 -847 0
-5 -7 -20 848 0
5 -848 0
7 -848 0
20 -848 0
-5 -7 -21 849 0
5 -849 0
7 -849 0
21 -849 0
-5 -7 -22 850 0
5 -850 0
7 -850 0
22 -850 0
-5 -7 -23 851 0
5 -851 0
7 -851 0
23 -851 0
-5 -7 -24 852 0
5 -852 0
7 -852 0
24 -852 0
-5 -7 -25 853 0
5 -853 0
7 -853 0
25 -853 0
-5 -7 -26 854 0
5 -854 0
7 -854 0
26 -854 0
-5 -7 -27 855 0
5 -855 0
7 -855 0
27 -855 0
-5 -7 -28 856 0
5 -856 0
7 -856 0
28 -856 0
-5 -7 -29 857 0
5 -857 0
7 -857 0
29 -857 0
-5 -7 -30 858 0
5 -858 0
7 -858 0
30 -858 0
-5 -7 -31 859 0
5 -859 0
7 -859 0
31 -859 0
-5 -7 -32 860 0
5 -860 0
7 -860 0
32 -860 0
-5 -7 -33 861 0
5 -861 0
7 -861 0
33 -861 0
-5 -7 -34 862 0
5 -862 0
7 -862 0
34 -862 0
-5 -7 -35 863 0
5 -863 0
7 -863 0
35 -863 0
-5 -7 -36 864 0
5 -864 0
7 -864 0
36 -864 0
-5 -7 -37 865 0
5 -865 0
7 -865 0
37 -865 0
-5 -7 -38 866 0
5 -866 0
7 -866 0
38 -866 0
-5 -7 -39 867 0
5 -867 0
7 -867 0
39 -867 0
-5 -7 -40 868 0
5 -868 0
7 -868 0
40 -868 0
-5 -7 -41 869 0
5 -869 0
7 -869 0
41 -869 0
-5 -7 -42 870 0
5 -870 0
7 -870 0
42 -870 0
-5 -7 -43 871 0
5 -871 0
7 -871 0
43 -871 0
-5 -7 -44 872 0
5 -872 0
7 -872 0
44 -872 0
-5 -7 -45 873 0
5 -873 0
7 -873 0
45 -873 0
-5 -7 -46 874 0
5 -874 0
7 -874 0
46 -874 0
-5 -8 875 0
5 -875 0
8 -875 0
-5 -8 -16 876 0
5 -876 0
8 -876 0
16 -876 0
-5 -8 -17 877 0
5 -877 0
8 -877 0
17 -877 0
-5 -8 -18 878 0
5 -878 0
8 -878 0
18 -878 0
-5 -8 -19 879 0
5 -879 0
8 -879 0
19 -879 0
-5 -8 -20 880 0
5 -880 0
8 -880 0
20 -880 0
-5 -8 -21 881 0
5 -881 0
8 -881 0
21 -881 0
-5 -8 -22 882 0
5 -882 0
8 -882 0
22 -882 0
-5 -8 -23 883 0
5 -883 0
8 -883 0
23 -883 0
-5 -8 -24 884 0
5 -884 0
8 -884 0
24 -884 0
-5 -8 -25 885 0
5 -885 0
8 -885 0
25 -885 0
-5 -8 -26 886 0
5 -886 0
8 -886 0
26 -886 0
-5 -8 -27 887 0
5 -887 0
8 -887 0
27 -887 0
-5 -8 -28 888 0
5 -888 0
8 -888 0
28 -888 0
-5 -8 -29 889 0
5 -889 0
8 -889 0
29 -889 0
-5 -8 -30 890 0
5 -890 0
8 -890 0
30 -890 0
-5 -8 -31 891 0
5 -891 0
8 -891 0
31 -891 0
-5 -8 -32 892 0
5 -892 0
8 -892 0
32 -892 0
-5 -8 -33 893 0
5 -893 0
8 -893 0
33 -893 0
-5 -8 -34 894 0
5 -894 0
8 -894 0
34 -894 0
-5 -8 -35 895 0
5 -895 0
8 -895 0
35 -895 0
-5 -8 -36 896 0
5 -896 0
8 -896 0
36 -896 0
-5 -8 -37 897 0
5 -897 0
8 -897 0
37 -897 0
-5 -8 -38 898 0
5 -898 0
8 -898 0
38 -898 0
-5 -8 -39 899 0
5 -899 0
8 -899 0
39 -899 0
-5 -8 -40 900 0
5 -900 0
8 -900 0
40 -900 0
-5 -8 -41 901 0
5 -901 0
8 -901 0
41 -901 0
-5 -8 -42 902 0
5 -902 0
8 -902 0
42 -902 0
-5 -8 -43 903 0
5 -903 0
8 -903 0
43 -903 0
-5 -8 -44 904 0
5 -904 0
8 -904 0
44 -904 0
-5 -8 -45 905 0
5 -905 0
8 -905 0
45 -905 0
-5 -8 -46 906 0
5 -906 0
8 -906 0
46 -906 0
-5 -9 907 0
5 -907 0
9 -907 0
-5 -9 -16 908 0
5 -908 0
9 -908 0
16 -908 0
-5 -9 -17 909 0
5 -909 0
9 -909 0
17 -909 0
-5 -9 -18 910 0
5 -910 0
9 -910 0
18 -910 0
-5 -9 -19 911 0
5 -911 0
9 -911 0
19 -911 0
-5 -9 -20 912 0
5 -912 0
9 -912 0
20 -912 0
-5 -9 -21 913 0
5 -913 0
9 -913 0
21 -913 0
-5 -9 -22 914 0
5 -914 0
9 -914 0
22 -914 0
-5 -9 -23 915 0
5 -915 0
9 -915 0
23 -915 0
-5 -9 -24 916 0
5 -916 0
9 -916 0
24 -916 0
-5 -9 -25 917 0
5 -917 0
9 -917 0
25 -917 0
-5 -9 -26 918 0
5 -918 0
9 -918 0
26 -918 0
-5 -9 -27 919 0
5 -919 0
9 -919 0
27 -919 0
-5 -9 -28 920 0
5 -920 0
9 -920 0
28 -920 0
-5 -9 -29 921 0
5 -921 0
9 -921 0
29 -921 0
-5 -9 -30 922 0
5 -922 0
9 -922 0
30 -922 0
-5 -9 -31 923 0
5 -923 0
9 -923 0
31 -923 0
-5 -9 -32 924 0
5 -924 0
9 -924 0
32 -924 0
-5 -9 -33 925 0
5 -925 0
9 -925 0
33 -925 0
-5 -9 -34 926 0
5 -926 0
9 -926 0
34 -926 0
-5 -9 -35 927 0
5 -927 0
9 -927 0
35 -927 0
-5 -9 -36 928 0
5 -928 0
9 -928 0
36 -928 0
-5 -9 -37 929 0
5 -929 0
9 -929 0
37 -929 0
-5 -9 -38 930 0
5 -930 0
9 -930 0
38 -930 0
-5 -9 -39 931 0
5 -931 0
9 -931 0
39 -931 0
-5 -9 -40 932 0
5 -932 0
9 -932 0
40 -932 0
-5 -9 -41 933 0
5 -933 0
9 -933 0
41 -933 0
-5 -9 -42 934 0
5 -934 0
9 -934 0
42 -934 0
-5 -9 -43 935 0
5 -935 0
9 -935 0
43 -935 0
-5 -9 -44 936 0
5 -936 0
9 -936 0
44 -936 0
-5 -9 -45 937 0
5 -937 0
9 -937 0
45 -937 0
-5 -9 -46 938 0
5 -938 0
9 -938 0
46 -938 0
-5 -10 939 0
5 -939 0
10 -939 0
-5 -10 -16 940 0
5 -940 0
10 -940 0
16 -940 0
-5 -10 -17 941 0
5 -941 0
10 -941 0
17 -941 0
-5 -10 -18 942 0
5 -942 0
10 -942 0
18 -942 0
-5 -10 -19 943 0
5 -943 0
10 -943 0
19 -943 0
-5 -10 -20 944 0
5 -944 0
10 -944 0
20 -944 0
-5 -10 -21 945 0
5 -945 0
10 -945 0
21 -945 0
-5 -10 -22 946 0
5 -946 0
10 -946 0
22 -946 0
-5 -10 -23 947 0
5 -947 0
10 -947 0
23 -947 0
-5 -10 -24 948 0
5 -948 0
10 -948 0
24 -948 0
-5 -10 -25 949 0
5 -949 0
10 -949 0
25 -949 0
-5 -10 -26 950 0
5 -950 0
10 -950 0
26 -950 0
-5 -10 -27 951 0
5 -951 0
10 -951 0
27 -951 0
-5 -10 -28 952 0
5 -952 0
10 -952 0
28 -952 0
-5 -10 -29 953 0
5 -953 0
10 -953 0
29 -953 0
-5 -10 -30 954 0
5 -954 0
10 -954 0
30 -954 0
-5 -10 -31 955 0
5 -955 0
10 -955 0
31 -955 0
-5 -10 -32 956 0
5 -956 0
10 -956 0
32 -956 0
-5 -10 -33 957 0
5 -957 0
10 -957 0
33 -957 0
-5 -10 -34 958 0
5 -958 0
10 -958 0
34 -958 0
-5 -10 -35 959 0
5 -959 0
10 -959 0
35 -959 0
-5 -10 -36 960 0
5 -960 0
10 -960 0
36 -960 0
-5 -10 -37 961 0
5 -961 0
10 -961 0
37 -961 0
-5 -10 -38 962 0
5 -962 0
10 -962 0
38 -962 0
-5 -10 -39 963 0
5 -963 0
10 -963 0
39 -963 0
-5 -10 -40 964 0
5 -964 0
10 -964 0
40 -964 0
-5 -10 -41 965 0
5 -965 0
10 -965 0
41 -965 0
-5 -10 -42 966 0
5 -966 0
10 -966 0
42 -966 0
-5 -10 -43 967 0
5 -967 0
10 -967 0
43 -967 0
-5 -10 -44 968 0
5 -968 0
10 -968 0
44 -968 0
-5 -10 -45 969 0
5 -969 0
10 -969 0
45 -969 0
-5 -10 -46 970 0
5 -970 0
10 -970 0
46 -970 0
-5 -16 971 0
5 -971 0
16 -971 0
-5 -17 972 0
5 -972 0
17 -972 0
-5 -18 973 0
5 -973 0
18 -973 0
-5 -19 974 0
5 -974 0
19 -974 0
-5 -20 975 0
5 -975 0
20 -975 0
-5 -21 976 0
5 -976 0
21 -976 0
-5 -22 977 0
5 -977 0
22 -977 0
-5 -23 978 0
5 -978 0
23 -978 0
-5 -24 979 0
5 -979 0
24 -979 0
-5 -25 980 0
5 -980 0
25 -980 0
-5 -26 981 0
5 -981 0
26 -981 0
-5 -27 982 0
5 -982 0
27 -982 0
-5 -28 983 0
5 -983 0
28 -983 0
-5 -29 984 0
5 -984 0
29 -984 0
-5 -30 985 0
5 -985 0
30 -985 0
-5 -31 986 0
5 -986 0
31 -986 0
-5 -32 987 0
5 -987 0
32 -987 0
-5 -33 988 0
5 -988 0
33 -988 0
-5 -34 989 0
5 -989 0
34 -989 0
-5 -35 990 0
5 -990 0
35 -990 0
-5 -36 991 0
5 -991 0
36 -991 0
-5 -37 992 0
5 -992 0
37 -992 0
-5 -38 993 0
5 -993 0
38 -993 0
-5 -39 994 0
5 -994 0
39 -994 0
-5 -40 995 0
5 -995 0
40 -995 0
-5 -41 996 0
5 -996 0
41 -996 0
-5 -42 997 0
5 -997 0
42 -997 0
-5 -43 998 0
5 -998 0
43 -998 0
-5 -44 999 0
5 -999 0
44 -999 0
-5 -45 1000 0
5 -1000 0
45 -1000 0
-5 -46 1001 0
5 -1001 0
46 -1001 0
-6 -16 1002 0
6 -1002 0
16 -1002 0
-6 -17 1003 0
6 -1003 0
17 -1003 0
-6 -18 1004 0
6 -1004 0
18 -1004 0
-6 -19 1005 0
6 -1005 0
19 -1005 0
-6 -20 1006 0
6 -1006 0
20 -1006 0
-6 -21 1007 0
6 -1007 0
21 -1007 0
-6 -22 1008 0
6 -1008 0
22 -1008 0
-6 -23 1009 0
6 -1009 0
23 -1009 0
-6 -24 1010 0
6 -1010 0
24 -1010 0
-6 -25 1011 0
6 -1011 0
25 -1011 0
-6 -26 1012 0
6 -1012 0
26 -1012 0
-6 -27 1013 0
6 -1013 0
27 -1013 0
-6 -28 1014 0
6 -1014 0
28 -1014 0
-6 -29 1015 0
6 -1015 0
29 -1015 0
-6 -30 1016 0
6 -1016 0
30 -1016 0
-6 -31 1017 0
6 -1017 0
31 -1017 0
-6 -32 1018 0
6 -1018 0
32 -1018 0
-6 -33 1019 0
6 -1019 0
33 -1019 0
-6 -34 1020 0
6 -1020 0
34 -1020 0
-6 -35 1021 0
6 -1021 0
35 -1021 0
-6 -36 1022 0
6 -1022 0
36 -1022 0
-6 -37 1023 0
6 -1023 0
37 -1023 0
-6 -38 1024 0
6 -1024 0
38 -1024 0
-6 -39 1025 0
6 -1025 0
39 -1025 0
-6 -40 1026 0
6 -1026 0
40 -1026 0
-6 -41 1027 0
6 -1027 0
41 -1027 0
-6 -42 1028 0
6 -1028 0
42 -1028 0
-6 -43 1029 0
6 -1029 0
43 -1029 0
-6 -44 1030 0
6 -1030 0
44 -1030 0
-6 -45 1031 0
6 -1031 0
45 -1031 0
-6 -46 1032 0
6 -1032 0
46 -1032 0
-7 -16 1033 0
7 -1033 0
16 -1033 0
-7 -17 1034 0
7 -1034 0
17 -1034 0
-7 -18 1035 0
7 -1035 0
18 -1035 0
-7 -19 1036 0
7 -1036 0
19 -1036 0
-7 -20 1037 0
7 -1037 0
20 -1037 0
-7 -21 1038 0
7 -1038 0
21 -1038 0
-7 -22 1039 0
7 -1039 0
22 -1039 0
-7 -23 1040 0
7 -1040 0
23 -1040 0
-7 -24 1041 0
7 -1041 0
24 -1041 0
-7 -25 1042 0
7 -1042 0
25 -1042 0
-7 -26 1043 0
7 -1043 0
26 -1043 0
-7 -27 1044 0
7 -1044 0
27 -1044 0
-7 -28 1045 0
7 -1045 0
28 -1045 0
-7 -29 1046 0
7 -1046 0
29 -1046 0
-7 -30 1047 0
7 -1047 0
30 -1047 0
-7 -31 1048 0
7 -1048 0
31 -1048 0
-7 -32 1049 0
7 -1049 0
32 -1049 0
-7 -33 1050 0
7 -1050 0
33 -1050 0
-7 -34 1051 0
7 -1051 0
34 -1051 0
-7 -35 1052 0
7 -1052 0
35 -1052 0
-7 -36 1053 0
7 -1053 0
36 -1053 0
-7 -37 1054 0
7 -1054 0
37 -1054 0
-7 -38 1055 0
7 -1055 0
38 -1055 0
-7 -39 1056 0
7 -1056 0
39 -1056 0
-7 -40 1057 0
7 -1057 0
40 -1057 0
-7 -41 1058 0
7 -1058 0
41 -1058 0
-7 -42 1059 0
7 -1059 0
42 -1059 0
-7 -43 1060 0
7 -1060 0
43 -1060 0
-7 -44 1061 0
7 -1061 0
44 -1061 0
-7 -45 1062 0
7 -1062 0
45 -1062 0
-7 -46 1063 0
7 -1063 0
46 -1063 0
-8 -16 1064 0
8 -1064 0
16 -1064 0
-8 -17 1065 0
8 -1065 0
17 -1065 0
-8 -18 1066 0
8 -1066 0
18 -1066 0
-8 -19 1067 0
8 -1067 0
19 -1067 0
-8 -20 1068 0
8 -1068 0
20 -1068 0
-8 -21 1069 0
8 -1069 0
21 -1069 0
-8 -22 1070 0
8 -1070 0
22 -1070 0
-8 -23 1071 0
8 -1071 0
23 -1071 0
-8 -24 1072 0
8 -1072 0
24 -1072 0
-8 -25 1073 0
8 -1073 0
25 -1073 0
-8 -26 1074 0
8 -1074 0
26 -1074 0
-8 -27 1075 0
8 -1075 0
27 -1075 0
-8 -28 1076 0
8 -1076 0
28 -1076 0
-8 -29 1077 0
8 -1077 0
29 -1077 0
-8 -30 1078 0
8 -1078 0
30 -1078 0
-8 -31 1079 0
8 -1079 0
31 -1079 0
-8 -32 1080 0
8 -1080 0
32 -1080 0
-8 -33 1081 0
8 -1081 0
33 -1081 0
-8 -34 1082 0
8 -1082 0
34 -1082 0
-8 -35 1083 0
8 -1083 0
35 -1083 0
-8 -36 1084 0
8 -1084 0
36 -1084 0
-8 -37 1085 0
8 -1085 0
37 -1085 0
-8 -38 1086 0
8 -1086 0
38 -1086 0
-8 -39 1087 0
8 -1087 0
39 -1087 0
-8 -40 1088 0
8 -1088 0
40 -1088 0
-8 -41 1089 0
8 -1089 0
41 -1089 0
-8 -42 1090 0
8 -1090 0
42 -1090 0
-8 -43 1091 0
8 -1091 0
43 -1091 0
-8 -44 1092 0
8 -1092 0
44 -1092 0
-8 -45 1093 0
8 -1093 0
45 -1093 0
-8 -46 1094 0
8 -1094 0
46 -1094 0
-9 -16 1095 0
9 -1095 0
16 -1095 0
-9 -17 1096 0
9 -1096 0
17 -1096 0
-9 -18 1097 0
9 -1097 0
18 -1097 0
-9 -19 1098 0
9 -1098 0
19 -1098 0
-9 -20 1099 0
9 -1099 0
20 -1099 0
-9 -21 1100 0
9 -1100 0
21 -1100 0
-9 -22 1101 0
9 -1101 0
22 -1101 0
-9 -23 1102 0
9 -1102 0
23 -1102 0
-9 -24 1103 0
9 -1103 0
24 -1103 0
-9 -25 1104 0
9 -1104 0
25 -1104 0
-9 -26 1105 0
9 -1105 0
26 -1105 0
-9 -27 1106 0
9 -1106 0
27 -1106 0
-9 -28 1107 0
9 -1107 0
28 -1107 0
-9 -29 1108 0
9 -1108 0
29 -1108 0
-9 -30 1109 0
9 -1109 0
30 -1109 0
-9 -31 1110 0
9 -1110 0
31 -1110 0
-9 -32 1111 0
9 -1111 0
32 -1111 0
-9 -33 1112 0
9 -1112 0
33 -1112 0
-9 -34 1113 0
9 -1113 0
34 -1113 0
-9 -35 1114 0
9 -1114 0
35 -1114 0
-9 -36 1115 0
9 -1115 0
36 -1115 0
-9 -37 1116 0
9 -1116 0
37 -1116 0
-9 -38 1117 0
9 -1117 0
38 -1117 0
-9 -39 1118 0
9 -1118 0
39 -1118 0
-9 -40 1119 0
9 -1119 0
40 -1119 0
-9 -41 1120 0
9 -1120 0
41 -1120 0
-9 -42 1121 0
9 -1121 0
42 -1121 0
-9 -43 1122 0
9 -1122 0
43 -1122 0
-9 -44 1123 0
9 -1123 0
44 -1123 0
-9 -45 1124 0
9 -1124 0
45 -1124 0
-9 -46 1125 0
9 -1125 0
46 -1125 0
-10 -16 1126 0
10 -1126 0
16 -1126 0
-10 -17 1127 0
10 -1127 0
17 -1127 0
-10 -18 1128 0
10 -1128 0
18 -1128 0
-10 -19 1129 0
10 -1129 0
19 -1129 0
-10 -20 1130 0
10 -1130 0
20 -1130 0
-10 -21 1131 0
10 -1131 0
21 -1131 0
-10 -22 1132 0
10 -1132 0
22 -1132 0
-10 -23 1133 0
10 -1133 0
23 -1133 0
-10 -24 1134 0
10 -1134 0
24 -1134 0
-10 -25 1135 0
10 -1135 0
25 -1135 0
-10 -26 1136 0
10 -1136 0
26 -1136 0
-10 -27 1137 0
10 -1137 0
27 -1137 0
-10 -28 1138 0
10 -1138 0
28 -1138 0
-10 -29 1139 0
10 -1139 0
29 -1139 0
-10 -30 1140 0
10 -1140 0
30 -1140 0
-10 -31 1141 0
10 -1141 0
31 -1141 0
-10 -32 1142 0
10 -1142 0
32 -1142 0
-10 -33 1143 0
10 -1143 0
33 -1143 0
-10 -34 1144 0
10 -1144 0
34 -1144 0
-10 -35 1145 0
10 -1145 0
35 -1145 0
-10 -36 1146 0
10 -1146 0
36 -1146 0
-10 -37 1147 0
10 -1147 0
37 -1147 0
-10 -38 1148 0
10 -1148 0
38 -1148 0
-10 -39 1149 0
10 -1149 0
39 -1149 0
-10 -40 1150 0
10 -1150 0
40 -1150 0
-10 -41 1151 0
10 -1151 0
41 -1151 0
-10 -42 1152 0
10 -1152 0
42 -1152 0
-10 -43 1153 0
10 -1153 0
43 -1153 0
-10 -44 1154 0
10 -1154 0
44 -1154 0
-10 -45 1155 0
10 -1155 0
45 -1155 0
-10 -46 1156 0
10 -1156 0
46 -1156 0
-11 -16 1157 0
11 -1157 0
16 -1157 0
-11 -17 1158 0
11 -1158 0
17 -1158 0
-11 -18 1159 0
11 -1159 0
18 -1159 0
-11 -19 1160 0
11 -1160 0
19 -1160 0
-11 -20 1161 0
11 -1161 0
20 -1161 0
-11 -21 1162 0
11 -1162 0
21 -1162 0
-11 -22 1163 0
11 -1163 0
22 -1163 0
-11 -23 1164 0
11 -1164 0
23 -1164 0
-11 -24 1165 0
11 -1165 0
24 -1165 0
-11 -25 1166 0
11 -1166 0
25 -1166 0
-11 -26 1167 0
11 -1167 0
26 -1167 0
-11 -27 1168 0
11 -1168 0
27 -1168 0
-11 -28 1169 0
11 -1169 0
28 -1169 0
-11 -29 1170 0
11 -1170 0
29 -1170 0
-11 -30 1171 0
11 -1171 0
30 -1171 0
-11 -31 1172 0
11 -1172 0
31 -1172 0
-11 -32 1173 0
11 -1173 0
32 -1173 0
-11 -33 1174 0
11 -1174 0
33 -1174 0
-11 -34 1175 0
11 -1175 0
34 -1175 0
-11 -35 1176 0
11 -1176 0
35 -1176 0
-11 -36 1177 0
11 -1177 0
36 -1177 0
-11 -37 1178 0
11 -1178 0
37 -1178 0
-11 -38 1179 0
11 -1179 0
38 -1179 0
-11 -39 1180 0
11 -1180 0
39 -1180 0
-11 -40 1181 0
11 -1181 0
40 -1181 0
-11 -41 1182 0
11 -1182 0
41 -1182 0
-11 -42 1183 0
11 -1183 0
42 -1183 0
-11 -43 1184 0
11 -1184 0
43 -1184 0
-11 -44 1185 0
11 -1185 0
44 -1185 0
-11 -45 1186 0
11 -1186 0
45 -1186 0
-11 -46 1187 0
11 -1187 0
46 -1187 0
-12 -16 1188 0
12 -1188 0
16 -1188 0
-12 -17 1189 0
12 -1189 0
17 -1189 0
-12 -18 1190 0
12 -1190 0
18 -1190 0
-12 -19 1191 0
12 -1191 0
19 -1191 0
-12 -20 1192 0
12 -1192 0
20 -1192 0
-12 -21 1193 0
12 -1193 0
21 -1193 0
-12 -22 1194 0
12 -1194 0
22 -1194 0
-12 -23 1195 0
12 -1195 0
23 -1195 0
-12 -24 1196 0
12 -1196 0
24 -1196 0
-12 -25 1197 0
12 -1197 0
25 -1197 0
-12 -26 1198 0
12 -1198 0
26 -1198 0
-12 -27 1199 0
12 -1199 0
27 -1199 0
-12 -28 1200 0
12 -1200 0
28 -1200 0
-12 -29 1201 0
12 -1201 0
29 -1201 0
-12 -30 1202 0
12 -1202 0
30 -1202 0
-12 -31 1203 0
12 -1203 0
31 -1203 0
-12 -32 1204 0
12 -1204 0
32 -1204 0
-12 -33 1205 0
12 -1205 0
33 -1205 0
-12 -34 1206 0
12 -1206 0
34 -1206 0
-12 -35 1207 0
12 -1207 0
35 -1207 0
-12 -36 1208 0
12 -1208 0
36 -1208 0
-12 -37 1209 0
12 -1209 0
37 -1209 0
-12 -38 1210 0
12 -1210 0
38 -1210 0
-12 -39 1211 0
12 -1211 0
39 -1211 0
-12 -40 1212 0
12 -1212 0
40 -1212 0
-12 -41 1213 0
12 -1213 0
41 -1213 0
-12 -42 1214 0
12 -1214 0
42 -1214 0
-12 -43 1215 0
12 -1215 0
43 -1215 0
-12 -44 1216 0
12 -1216 0
44 -1216 0
-12 -45 1217 0
12 -1217 0
45 -1217 0
-12 -46 1218 0
12 -1218 0
46 -1218 0
-13 -16 1219 0
13 -1219 0
16 -1219 0
-13 -17 1220 0
13 -1220 0
17 -1220 0
-13 -18 1221 0
13 -1221 0
18 -1221 0
-13 -19 1222 0
13 -1222 0
19 -1222 0
-13 -20 1223 0
13 -1223 0
20 -1223 0
-13 -21 1224 0
13 -1224 0
21 -1224 0
-13 -22 1225 0
13 -1225 0
22 -1225 0
-13 -23 1226 0
13 -1226 0
23 -1226 0
-13 -24 1227 0
13 -1227 0
24 -1227 0
-13 -25 1228 0
13 -1228 0
25 -1228 0
-13 -26 1229 0
13 -1229 0
26 -1229 0
-13 -27 1230 0
13 -1230 0
27 -1230 0
-13 -28 1231 0
13 -1231 0
28 -1231 0
-13 -29 1232 0
13 -1232 0
29 -1232 0
-13 -30 1233 0
13 -1233 0
30 -1233 0
-13 -31 1234 0
13 -1234 0
31 -1234 0
-13 -32 1235 0
13 -1235 0
32 -1235 0
-13 -33 1236 0
13 -1236 0
33 -1236 0
-13 -34 1237 0
13 -1237 0
34 -1237 0
-13 -35 1238 0
13 -1238 0
35 -1238 0
-13 -36 1239 0
13 -1239 0
36 -1239 0
-13 -37 1240 0
13 -1240 0
37 -1240 0
-13 -38 1241 0
13 -1241 0
38 -1241 0
-13 -39 1242 0
13 -1242 0
39 -1242 0
-13 -40 1243 0
13 -1243 0
40 -1243 0
-13 -41 1244 0
13 -1244 0
41 -1244 0
-13 -42 1245 0
13 -1245 0
42 -1245 0
-13 -43 1246 0
13 -1246 0
43 -1246 0
-13 -44 1247 0
13 -1247 0
44 -1247 0
-13 -45 1248 0
13 -1248 0
45 -1248 0
-13 -46 1249 0
13 -1249 0
46 -1249 0
-14 -16 1250 0
14 -1250 0
16 -1250 0
-14 -17 1251 0
14 -1251 0
17 -1251 0
-14 -18 1252 0
14 -1252 0
18 -1252 0
-14 -19 1253 0
14 -1253 0
19 -1253 0
-14 -20 1254 0
14 -1254 0
20 -1254 0
-14 -21 1255 0
14 -1255 0
21 -1255 0
-14 -22 1256 0
14 -1256 0
22 -1256 0
-14 -23 1257 0
14 -1257 0
23 -1257 0
-14 -24 1258 0
14 -1258 0
24 -1258 0
-14 -25 1259 0
14 -1259 0
25 -1259 0
-14 -26 1260 0
14 -1260 0
26 -1260 0
-14 -27 1261 0
14 -1261 0
27 -1261 0
-14 -28 1262 0
14 -1262 0
28 -1262 0
-14 -29 1263 0
14 -1263 0
29 -1263 0
-14 -30 1264 0
14 -1264 0
30 -1264 0
-14 -31 1265 0
14 -1265 0
31 -1265 0
-14 -32 1266 0
14 -1266 0
32 -1266 0
-14 -33 1267 0
14 -1267 0
33 -1267 0
-14 -34 1268 0
14 -1268 0
34 -1268 0
-14 -35 1269 0
14 -1269 0
35 -1269 0
-14 -36 1270 0
14 -1270 0
36 -1270 0
-14 -37 1271 0
14 -1271 0
37 -1271 0
-14 -38 1272 0
14 -1272 0
38 -1272 0
-14 -39 1273 0
14 -1273 0
39 -1273 0
-14 -40 1274 0
14 -1274 0
40 -1274 0
-14 -41 1275 0
14 -1275 0
41 -1275 0
-14 -42 1276 0
14 -1276 0
42 -1276 0
-14 -43 1277 0
14 -1277 0
43 -1277 0
-14 -44 1278 0
14 -1278 0
44 -1278 0
-14 -45 1279 0
14 -1279 0
45 -1279 0
-14 -46 1280 0
14 -1280 0
46 -1280 0
-15 -16 1281 0
15 -1281 0
16 -1281 0
-15 -17 1282 0
15 -1282 0
17 -1282 0
-15 -18 1283 0
15 -1283 0
18 -1283 0
-15 -19 1284 0
15 -1284 0
19 -1284 0
-15 -20 1285 0
15 -1285 0
20 -1285 0
-15 -21 1286 0
15 -1286 0
21 -1286 0
-15 -22 1287 0
15 -1287 0
22 -1287 0
-15 -23 1288 0
15 -1288 0
23 -1288 0
-15 -24 1289 0
15 -1289 0
24 -1289 0
-15 -25 1290 0
15 -1290 0
25 -1290 0
-15 -26 1291 0
15 -1291 0
26 -1291 0
-15 -27 1292 0
15 -1292 0
27 -1292 0
-15 -28 1293 0
15 -1293 0
28 -1293 0
-15 -29 1294 0
15 -1294 0
29 -1294 0
-15 -30 1295 0
15 -1295 0
30 -1295 0
-15 -31 1296 0
15 -1296 0
31 -1296 0
-15 -32 1297 0
15 -1297 0
32 -1297 0
-15 -33 1298 0
15 -1298 0
33 -1298 0
-15 -34 1299 0
15 -1299 0
34 -1299 0
-15 -35 1300 0
15 -1300 0
35 -1300 0
-15 -36 1301 0
15 -1301 0
36 -1301 0
-15 -37 1302 0
15 -1302 0
37 -1302 0
-15 -38 1303 0
15 -1303 0
38 -1303 0
-15 -39 1304 0
15 -1304 0
39 -1304 0
-15 -40 1305 0
15 -1305 0
40 -1305 0
-15 -41 1306 0
15 -1306 0
41 -1306 0
-15 -42 1307 0
15 -1307 0
42 -1307 0
-15 -43 1308 0
15 -1308 0
43 -1308 0
-15 -44 1309 0
15 -1309 0
44 -1309 0
-15 -45 1310 0
15 -1310 0
45 -1310 0
-15 -46 1311 0
15 -1311 0
46 -1311 0
x 242 433 83 656 847 115 497 688 879 338 529 720 911 370 561 752 53 626 817 276 658 690 881 149 340 531 181 563 627 468 659 850 309 150 341 373 946 246 437 87 278 660 119 501 692 883 342 533 724 565 248 89 280 662 503 694 885 344 535 726 567 949 440 631 822 472 663 122 313 695 154 345 536 727 918 186 759 59 250 441 632 823 91 473 664 855 123 314 505 696 887 155 346 537 187 378 569 951 251 633 824 92 474 856 315 506 888 156 188 379 570 252 634 825 93 475 666 857 316 157 348 730 189 380 953 444 635 285 667 126 890 158 349 572 254 636 827 95 668 859 159 350 923 191 382 764 955 65 256 447 829 97 288 479 670 129 320 511 352 734 925 193 766 957 257 448 830 98 289 671 862 130 512 894 353 926 194 385 576 767 449 290 863 131 513 704 545 736 386 959 68 450 832 482 132 323 705 896 546 928 196 578 769 833 292 674 897 356 738 929 197 579 770 961 70 452 293 866 134 516 707 898 548 739 930 389 580 771 644 294 485 326 899 167 581 963 72 454 645 836 677 868 136 709 900 168 359 550 932 200 391 582 773 964 455 646 487 678 137 328 519 710 901 169 360 551 933 583 774 74 265 647 838 106 679 870 520 711 170 361 552 934 202 393 775 266 839 107 298 680 362 744 203 967 267 458 840 108 299 140 904 936 204 586 777 968 77 268 459 841 109 873 141 937 205 396 778 969 460 651 683 142 524 715 174 365 556 938 779 974 1129 785 1100 595 1070 405 1040 407 598 1042 1073 217 1012 218 409 600 791 1013 1044 1075 1106 219 983 1014 1138 220 602 1015 1077 412 985 1047 1140 604 1079 606 797 988 1081 1112 1143 225 416 1020 1051 417 608 1052 1083 418 800 991 1053 1115 1146 228 419 610 992 1023 1054 1085 1147 802 993 1117 1148 421 612 994 1056 1087 1149 422 613 804 995 1057 1088 1119 1150 232 996 1027 1151 233 424 806 1028 1059 1121 234 425 616 998 1029 1060 1091 1153 426 617 999 1061 1092 1154 427 618 809 1000 1062 1093 1124 1155 237 1001 1032 1156 0
x -430 621 653 112 494 685 144 335 526 908 749 243 434 84 657 848 116 498 689 880 339 530 721 912 371 562 753 54 627 818 277 659 691 882 150 341 532 182 564 628 469 660 851 310 151 342 374 947 247 438 88 279 661 120 502 693 884 343 534 725 566 249 90 281 663 504 695 886 345 536 727 568 950 441 632 823 473 664 123 314 696 155 346 537 728 919 187 760 60 251 442 633 824 92 474 665 856 124 315 506 697 888 156 347 538 188 379 570 952 252 634 825 93 475 857 316 507 889 157 189 380 571 253 635 826 94 476 667 858 317 158 349 731 190 381 954 445 636 286 668 127 891 159 350 573 255 637 828 96 669 860 160 351 924 192 383 765 956 66 257 448 830 98 289 480 671 130 321 512 353 735 926 194 767 958 258 449 831 99 290 672 863 131 513 895 354 927 195 386 577 768 450 291 864 132 514 705 546 737 387 960 69 451 833 483 133 324 706 897 547 929 197 579 770 834 293 675 898 357 739 930 198 580 771 962 71 453 294 867 135 517 708 899 549 740 931 390 581 772 645 295 486 327 900 168 582 964 73 455 646 837 678 869 137 710 901 169 360 551 933 201 392 583 774 965 456 647 488 679 138 329 520 711 902 170 361 552 934 584 775 75 266 648 839 107 680 871 521 712 171 362 553 935 203 394 776 267 840 108 299 681 363 745 204 968 268 459 841 109 300 141 905 937 205 587 778 969 78 269 460 842 110 874 142 938 206 397 779 970 238 620 811 79 652 843 143 334 907 175 366 748 939 589 1064 591 782 1066 1097 210 401 1005 1036 402 593 784 1037 1068 1099 403 594 785 976 1038 1069 1100 1131 213 595 977 1008 1070 1132 787 978 1102 1133 979 1134 216 407 598 789 980 1011 1042 1073 1104 1135 408 599 790 981 1043 1074 1105 1136 409 791 982 1044 1106 1137 410 983 1045 1138 602 1077 412 794 985 1047 1109 1140 222 986 1017 1141 605 796 1080 1111 224 415 1019 1050 416 607 798 1051 1082 1113 417 608 799 1052 1083 1114 227 609 991 1022 1084 1146 992 1147 611 993 1086 1148 230 612 803 994 1025 1087 1118 1149 422 613 804 995 1057 1088 1119 1150 614 805 996 1089 1120 1151 233 424 997 1028 1059 1152 234 425 807 1029 1060 1122 235 426 808 1030 1061 1123 618 1000 1093 1155 428 619 810 1001 1063 1094 1125 1156 0
x -48 239 430 812 80 844 112 908 176 367 749 940 431 622 654 113 495 686 145 336 527 909 750 244 435 85 658 849 117 499 690 881 340 531 722 913 372 563 754 55 628 819 278 660 692 883 151 342 533 183 565 629 470 661 852 311 152 343 375 948 248 439 89 280 662 121 503 694 885 344 535 726 567 250 91 282 664 505 696 887 346 537 728 569 951 442 633 824 474 665 124 315 697 156 347 538 729 920 188 761 61 252 443 634 825 93 475 666 857 125 316 507 698 889 157 348 539 189 380 571 953 253 635 826 94 476 858 317 508 890 158 190 381 572 254 636 827 95 477 668 859 318 159 350 732 191 382 955 446 637 287 669 128 892 160 351 574 256 638 829 97 670 861 161 352 925 193 384 766 957 67 258 449 831 99 290 481 672 131 322 513 354 736 927 195 768 959 259 450 832 100 291 673 864 132 514 896 355 928 196 387 578 769 451 292 865 133 515 706 547 738 388 961 70 452 834 484 134 325 707 898 548 930 198 580 771 835 294 676 899 358 740 931 199 581 772 963 72 454 295 868 136 518 709 900 550 741 932 391 582 773 646 296 487 328 901 169 583 965 74 456 647 838 679 870 138 711 902 170 361 552 934 202 393 584 775 966 457 648 489 680 139 330 521 712 903 171 362 553 935 585 776 76 267 649 840 108 681 872 522 713 172 363 554 936 204 395 777 268 841 109 300 682 364 746 205 969 269 460 842 110 301 142 906 938 206 588 779 970 429 620 652 111 493 684 143 334 525 907 748 207 971 1002 1126 975 1130 786 1101 596 1071 406 1041 408 599 1043 1074 218 1013 219 410 601 792 1014 1045 1076 1107 220 984 1015 1139 221 603 1016 1078 413 986 1048 1141 605 1080 607 798 989 1082 1113 1144 226 417 1021 1052 418 609 1053 1084 419 801 992 1054 1116 1147 229 420 611 993 1024 1055 1086 1148 803 994 1118 1149 422 613 995 1057 1088 1150 423 614 805 996 1058 1089 1120 1151 233 997 1028 1152 234 425 807 1029 1060 1122 235 426 617 999 1030 1061 1092 1154 427 618 1000 1062 1093 1155 428 619 810 1001 1063 1094 1125 1156 0
x -239 430 812 80 271 112 876 908 176 558 749 940 49 240 431 813 81 845 113 909 177 368 750 941 432 623 655 114 496 687 146 337 528 910 751 242 433 83 656 847 115 497 688 879 338 529 720 911 370 561 752 53 626 817 276 658 690 881 149 340 531 181 563 245 436 627 86 468 118 309 500 691 882 150 532 723 914 564 755 946 246 437 87 278 660 119 501 692 883 342 533 724 565 56 629 820 279 661 693 884 152 343 534 184 566 248 630 89 280 471 853 312 503 694 885 153 535 726 376 567 249 631 822 90 281 472 313 504 886 154 918 186 568 759 59 250 441 632 823 91 473 664 855 123 314 505 696 887 155 346 537 187 378 569 951 633 824 283 474 665 856 315 697 156 347 538 729 188 379 952 252 443 93 857 125 698 539 921 380 762 953 62 253 826 94 285 476 858 317 508 699 540 190 381 954 477 668 318 509 891 350 923 573 764 955 255 637 828 96 478 669 860 319 160 351 733 192 383 956 65 256 638 829 97 479 320 511 893 161 734 925 193 575 766 957 448 639 289 130 512 894 162 576 958 449 290 863 131 513 704 545 736 386 959 259 100 291 673 514 705 896 355 546 737 578 960 260 451 101 865 133 515 738 388 961 70 898 930 580 771 962 71 453 644 835 294 135 708 167 549 931 199 772 963 72 454 645 295 868 136 709 168 550 741 391 73 646 296 487 678 869 328 169 360 742 392 74 265 838 106 297 488 679 870 329 520 711 902 361 552 934 202 393 584 775 966 75 266 457 648 107 298 871 139 712 903 171 553 744 935 394 585 776 267 649 840 108 299 490 681 331 522 713 172 363 554 204 968 459 650 682 141 523 714 173 364 555 969 269 460 651 842 110 301 142 524 715 174 556 747 938 206 779 970 429 620 270 652 111 875 143 334 557 398 971 1033 1126 590 1065 592 783 974 1067 1098 1129 211 402 1006 1037 403 594 1038 1069 404 786 977 1039 1101 1132 214 405 596 978 1009 1040 1071 1133 788 979 1103 1134 407 598 980 1042 1073 1135 408 599 790 981 1043 1074 1105 1136 218 982 1013 1137 219 410 792 1014 1045 1107 220 411 602 984 1015 1046 1077 1139 412 603 985 1047 1078 1140 413 604 795 986 1048 1079 1110 1141 223 987 1018 1142 988 1143 799 1114 609 991 1084 1146 419 1054 802 1117 421 1056 231 422 1026 1057 232 423 614 805 1027 1058 1089 1120 233 424 615 997 1028 1059 1090 1152 616 1091 235 617 808 999 1030 1092 1123 1154 236 618 1000 1031 1093 1155 237 619 1032 1094 0
x -239 812 80 271 653 335 717 176 940 240 431 813 81 272 113 877 909 177 559 750 941 50 241 432 814 82 846 114 910 178 369 751 942 433 624 656 115 497 688 147 338 529 911 752 243 434 84 657 848 116 498 689 880 339 530 721 912 371 562 753 54 627 818 277 659 691 882 150 341 532 182 564 246 437 628 87 469 119 310 501 692 883 151 533 724 915 565 756 947 247 438 88 279 661 120 502 693 884 343 534 725 566 57 630 821 280 662 694 885 153 344 535 185 567 249 631 90 281 472 854 313 504 695 886 154 536 727 377 568 250 632 823 91 282 473 314 505 887 155 919 187 569 760 60 251 442 633 824 92 474 665 856 124 315 506 697 888 156 347 538 188 379 570 952 634 825 284 475 666 857 316 698 157 348 539 730 189 380 953 253 444 94 858 126 699 540 922 381 763 954 63 254 827 95 286 477 859 318 509 700 541 191 382 955 478 669 319 510 892 351 924 574 765 956 256 638 829 97 479 670 861 320 161 352 734 193 384 957 66 257 639 830 98 480 321 512 894 162 735 926 194 576 767 958 449 640 290 131 513 895 163 577 959 450 291 864 132 514 705 546 737 387 960 260 101 292 674 515 706 897 356 547 738 579 961 261 452 102 866 134 516 739 389 962 71 899 931 581 772 963 72 454 645 836 295 136 709 168 550 932 200 773 964 73 455 646 296 869 137 710 169 551 742 392 74 647 297 488 679 870 329 170 361 743 393 75 266 839 107 298 489 680 871 330 521 712 903 362 553 935 203 394 585 776 967 76 267 458 649 108 299 872 140 713 904 172 554 745 936 395 586 777 268 650 841 109 300 491 682 332 523 714 173 364 555 205 969 460 651 683 142 524 715 174 365 556 970 47 429 620 652 111 143 334 398 780 971 1033 1095 1126 208 972 1003 1127 591 782 1066 1097 210 401 1005 1036 402 593 784 1037 1068 1099 403 594 785 1038 1069 1100 213 595 977 1008 1070 1132 978 1133 597 979 1072 1134 216 598 789 980 1011 1073 1104 1135 408 599 790 981 1043 1074 1105 1136 600 791 982 1075 1106 1137 219 410 983 1014 1045 1138 220 411 793 1015 1046 1108 221 412 794 1016 1047 1109 604 986 1079 1141 414 605 796 987 1049 1080 1111 1142 224 415 606 1019 1050 1081 416 607 798 1051 1082 1113 417 990 1052 1145 418 609 991 1053 1084 1146 419 610 992 1054 1085 1147 420 611 802 1055 1086 1117 421 803 1056 1118 422 613 1057 1088 423 805 1058 1120 233 615 806 1028 1090 1121 425 807 998 1060 1122 1153 236 427 1031 1062 810 1125 0
x -48 239 621 812 80 653 844 494 685 144 335 526 908 176 367 749 240 813 81 272 654 336 718 177 941 241 432 814 82 273 114 878 910 178 560 751 942 51 242 433 815 83 847 115 911 179 370 752 943 434 625 657 116 498 689 148 339 530 912 753 244 435 85 658 849 117 499 690 881 340 531 722 913 372 563 754 55 628 819 278 660 692 883 151 342 533 183 565 247 438 629 88 470 120 311 502 693 884 152 534 725 916 566 757 948 248 439 89 280 662 121 503 694 885 344 535 726 567 58 631 822 281 663 695 886 154 345 536 186 568 250 632 91 282 473 855 314 505 696 887 155 537 728 378 569 251 633 824 92 283 474 315 506 888 156 920 188 570 761 61 252 443 634 825 93 475 666 857 125 316 507 698 889 157 348 539 189 380 571 953 635 826 285 476 667 858 317 699 158 349 540 731 190 381 954 254 445 95 859 127 700 541 923 382 764 955 64 255 828 96 287 478 860 319 510 701 542 192 383 956 479 670 320 511 893 352 925 575 766 957 257 639 830 98 480 671 862 321 162 353 735 194 385 958 67 258 640 831 99 481 322 513 895 163 736 927 195 577 768 959 450 641 291 132 514 896 164 578 960 451 292 865 133 515 706 547 738 388 961 261 102 293 675 516 707 898 357 548 739 580 962 262 453 103 867 135 517 740 390 963 72 900 932 582 773 964 73 455 646 837 296 137 710 169 551 933 201 774 965 74 456 647 297 870 138 711 170 552 743 393 75 648 298 489 680 871 330 171 362 744 394 76 267 840 108 299 490 681 872 331 522 713 904 363 554 936 204 395 586 777 968 77 268 459 650 109 300 873 141 714 905 173 555 746 937 396 587 778 269 651 842 110 301 492 683 333 524 715 174 365 556 206 970 238 620 811 79 461 652 843 302 143 334 716 175 366 939 207 589 1002 1064 399 972 1034 1127 591 1066 593 784 975 1068 1099 1130 212 403 1007 1038 404 595 1039 1070 405 787 978 1040 1102 1133 215 406 597 979 1010 1041 1072 1134 789 980 1104 1135 408 599 981 1043 1074 1136 409 600 791 982 1044 1075 1106 1137 219 983 1014 1138 220 411 793 1015 1046 1108 221 412 603 985 1016 1047 1078 1140 413 604 986 1048 1079 1141 414 605 796 987 1049 1080 1111 1142 224 988 1019 1143 989 1144 800 1115 610 992 1085 1147 420 1055 803 1118 422 1057 232 423 1027 1058 233 424 615 806 1028 1059 1090 1121 234 425 616 998 1029 1060 1091 1153 617 1092 236 618 809 1000 1031 1093 1124 1155 237 619 1001 1032 1094 1156 0
x -430 621 462 653 112 303 494 685 876 144 335 526 908 558 749 49 240 622 813 81 654 845 495 686 145 336 527 909 177 368 750 241 814 82 273 655 337 719 178 942 242 433 815 83 274 115 879 911 179 561 752 943 52 243 434 816 84 848 116 912 180 371 753 944 435 626 658 117 499 690 149 340 531 913 754 245 436 86 659 850 118 500 691 882 341 532 723 914 373 564 755 56 629 820 279 661 693 884 152 343 534 184 566 248 439 630 89 471 121 312 503 694 885 153 535 726 917 567 758 949 249 440 90 281 663 122 504 695 886 345 536 727 568 59 632 823 282 664 696 887 155 346 537 187 569 251 633 92 283 474 856 315 506 697 888 156 538 729 379 570 252 634 825 93 284 475 316 507 889 157 921 189 571 762 62 253 444 635 826 94 476 667 858 126 317 508 699 890 158 349 540 190 381 572 954 636 827 286 477 668 859 318 700 159 350 541 732 191 382 955 255 446 96 860 128 701 542 924 383 765 956 65 256 829 97 288 479 861 320 511 702 543 193 384 957 480 671 321 512 894 353 926 576 767 958 258 640 831 99 481 672 863 322 163 354 736 195 386 959 68 259 641 832 100 482 323 514 896 164 737 928 196 578 769 960 451 642 292 133 515 897 165 579 961 452 293 866 134 516 707 548 739 389 962 262 103 294 676 517 708 899 358 549 740 581 963 263 454 104 868 136 518 741 391 964 73 901 933 583 774 965 74 456 647 838 297 138 711 170 552 934 202 775 966 75 457 648 298 871 139 712 171 553 744 394 76 649 299 490 681 872 331 172 363 745 395 77 268 841 109 300 491 682 873 332 523 714 905 364 555 937 205 396 587 778 969 78 269 460 651 110 301 874 142 715 906 174 556 747 938 397 588 779 238 620 811 79 652 143 334 907 175 748 939 589 1064 399 781 972 1034 1096 1127 209 973 1004 1128 592 783 1067 1098 211 402 1006 1037 403 594 785 1038 1069 1100 404 595 786 1039 1070 1101 214 596 978 1009 1071 1133 979 1134 598 980 1073 1135 217 599 790 981 1012 1074 1105 1136 409 600 791 982 1044 1075 1106 1137 601 792 983 1076 1107 1138 220 411 984 1015 1046 1139 221 412 794 1016 1047 1109 222 413 795 1017 1048 1110 605 987 1080 1142 415 606 797 988 1050 1081 1112 1143 225 416 607 1020 1051 1082 417 608 799 1052 1083 1114 418 991 1053 1146 419 610 992 1054 1085 1147 420 611 993 1055 1086 1148 421 612 803 1056 1087 1118 422 804 1057 1119 423 614 1058 1089 424 806 1059 1121 234 616 807 1029 1091 1122 426 808 999 1061 1123 1154 237 428 1032 1063 0
x -48 430 621 812 653 844 112 685 876 144 335 526 908 176 367 558 749 940 431 622 463 654 113 304 495 686 877 145 336 527 909 559 750 50 241 623 814 82 655 846 496 687 146 337 528 910 178 369 751 242 815 83 274 656 338 720 179 943 243 434 816 84 275 116 880 912 180 562 753 944 53 244 435 817 85 849 117 913 181 372 754 945 436 627 659 118 500 691 150 341 532 914 755 246 437 87 660 851 119 501 692 883 342 533 724 915 374 565 756 57 630 821 280 662 694 885 153 344 535 185 567 249 440 631 90 472 122 313 504 695 886 154 536 727 918 568 759 950 250 441 91 282 664 123 505 696 887 346 537 728 569 60 633 824 283 665 697 888 156 347 538 188 570 252 634 93 284 475 857 316 507 698 889 157 539 730 380 571 253 635 826 94 285 476 317 508 890 158 922 190 572 763 63 254 445 636 827 95 477 668 859 127 318 509 700 891 159 350 541 191 382 573 955 637 828 287 478 669 860 319 701 160 351 542 733 192 383 956 256 447 97 861 129 702 543 925 384 766 957 66 257 830 98 289 480 862 321 512 703 544 194 385 958 481 672 322 513 895 354 927 577 768 959 259 641 832 100 482 673 864 323 164 355 737 196 387 960 69 260 642 833 101 483 324 515 897 165 738 929 197 579 770 961 452 643 293 134 516 898 166 580 962 453 294 867 135 517 708 549 740 390 963 263 104 295 677 518 709 900 359 550 741 582 964 264 455 105 869 137 519 742 392 965 74 902 934 584 775 966 75 457 648 839 298 139 712 171 553 935 203 776 967 76 458 649 299 872 140 713 172 554 745 395 77 650 300 491 682 873 332 173 364 746 396 78 269 842 110 301 492 683 874 333 524 715 906 365 556 938 206 397 588 779 970 238 620 811 79 461 843 302 493 875 143 175 366 557 207 971 1002 1126 208 590 1003 1065 400 973 1035 1128 592 1067 594 785 976 1069 1100 1131 213 404 1008 1039 405 596 1040 1071 406 788 979 1041 1103 1134 216 407 598 980 1011 1042 1073 1135 790 981 1105 1136 409 600 982 1044 1075 1137 410 601 792 983 1045 1076 1107 1138 220 984 1015 1139 221 412 794 1016 1047 1109 222 413 604 986 1017 1048 1079 1141 414 605 987 1049 1080 1142 415 606 797 988 1050 1081 1112 1143 225 989 1020 1144 990 1145 801 1116 611 993 1086 1148 421 1056 804 1119 423 1058 233 424 1028 1059 234 425 616 807 1029 1060 1091 1122 235 426 617 999 1030 1061 1092 1154 618 1093 237 619 810 1001 1032 1094 1125 1156 0
x -621 271 462 303 876 144 558 940 49 431 622 813 654 845 113 686 877 145 336 527 909 177 368 559 750 941 432 623 464 655 114 305 496 687 878 146 337 528 910 560 751 51 242 624 815 83 656 847 497 688 147 338 529 911 179 370 752 243 816 84 275 657 339 721 180 944 244 435 817 85 276 117 881 913 181 563 754 945 54 245 436 818 86 850 118 914 182 373 755 946 437 628 660 119 501 692 151 342 533 915 756 247 438 88 661 852 120 502 693 884 343 534 725 916 375 566 757 58 631 822 281 663 695 886 154 345 536 186 568 250 441 632 91 473 123 314 505 696 887 155 537 728 919 569 760 951 251 442 92 283 665 124 506 697 888 347 538 729 570 61 634 825 284 666 698 889 157 348 539 189 571 253 635 94 285 476 858 317 508 699 890 158 540 731 381 572 254 636 827 95 286 477 318 509 891 159 923 191 573 764 64 255 446 637 828 96 478 669 860 128 319 510 701 892 160 351 542 192 383 574 956 638 829 288 479 670 861 320 702 161 352 543 734 193 384 957 257 448 98 862 130 703 544 926 385 767 958 67 258 831 99 290 481 863 322 513 704 545 195 386 959 482 673 323 514 896 355 928 578 769 960 260 642 833 101 483 674 865 324 165 356 738 197 388 961 70 261 643 834 102 484 325 516 898 166 739 930 198 580 771 962 453 644 294 135 517 899 167 581 963 454 295 868 136 518 709 550 741 391 964 264 105 296 678 519 710 901 360 551 742 583 965 265 456 106 870 138 520 743 393 966 75 903 935 585 776 967 76 458 649 840 299 140 713 172 554 936 204 777 968 77 459 650 300 873 141 714 173 555 746 396 78 651 301 492 683 874 333 174 365 747 397 620 270 461 843 302 143 366 398 971 1033 1126 590 1065 400 782 973 1035 1097 1128 210 974 1005 1129 593 784 1068 1099 212 403 1007 1038 404 595 786 1039 1070 1101 405 596 787 1040 1071 1102 215 597 979 1010 1072 1134 980 1135 599 981 1074 1136 218 600 791 982 1013 1075 1106 1137 410 601 792 983 1045 1076 1107 1138 602 793 984 1077 1108 1139 221 412 985 1016 1047 1140 222 413 795 1017 1048 1110 223 414 796 1018 1049 1111 606 988 1081 1143 416 607 798 989 1051 1082 1113 1144 226 417 608 1021 1052 1083 418 609 800 1053 1084 1115 419 992 1054 1147 420 611 993 1055 1086 1148 421 612 994 1056 1087 1149 422 613 804 1057 1088 1119 423 805 1058 1120 424 615 1059 1090 425 807 1060 1122 235 617 808 1030 1092 1123 427 809 1000 1062 1124 1155 0
x -48 430 271 844 112 494 685 876 526 717 908 367 558 749 622 272 463 304 877 145 559 941 50 432 623 814 655 846 114 687 878 146 337 528 910 178 369 560 751 942 433 624 465 656 115 306 497 688 879 147 338 529 911 561 752 52 243 625 816 84 657 848 498 689 148 339 530 912 180 371 753 244 817 85 276 658 340 722 181 945 245 436 818 86 277 118 882 914 182 564 755 946 55 246 437 819 87 851 119 915 183 374 756 947 438 629 661 120 502 693 152 343 534 916 757 248 439 89 662 853 121 503 694 885 344 535 726 917 376 567 758 59 632 823 282 664 696 887 155 346 537 187 569 251 442 633 92 474 124 315 506 697 888 156 538 729 920 570 761 952 252 443 93 284 666 125 507 698 889 348 539 730 571 62 635 826 285 667 699 890 158 349 540 190 572 254 636 95 286 477 859 318 509 700 891 159 541 732 382 573 255 637 828 96 287 478 319 510 892 160 924 192 574 765 65 256 447 638 829 97 479 670 861 129 320 511 702 893 161 352 543 193 384 575 957 639 830 289 480 671 862 321 703 162 353 544 735 194 385 958 258 449 99 863 131 704 545 927 386 768 959 68 259 832 100 291 482 864 323 514 705 546 196 387 960 483 674 324 515 897 356 929 579 770 961 261 643 834 102 484 675 866 325 166 357 739 198 389 962 71 262 644 835 103 485 326 517 899 167 740 931 199 581 772 963 454 645 295 136 518 900 168 582 964 455 296 869 137 519 710 551 742 392 965 265 106 297 679 520 711 902 361 552 743 584 966 266 457 107 871 139 521 744 394 967 76 904 936 586 777 968 77 459 650 841 300 141 714 173 555 937 205 778 969 78 460 651 301 874 142 715 174 556 747 397 47 238 429 620 811 79 461 652 843 111 302 493 684 875 143 334 525 175 366 557 939 207 398 589 780 1002 1033 1064 1095 208 972 1003 1127 209 591 1004 1066 401 974 1036 1129 593 1068 595 786 977 1070 1101 1132 214 405 1009 1040 406 597 1041 1072 407 789 980 1042 1104 1135 217 408 599 981 1012 1043 1074 1136 791 982 1106 1137 410 601 983 1045 1076 1138 411 602 793 984 1046 1077 1108 1139 221 985 1016 1140 222 413 795 1017 1048 1110 223 414 605 987 1018 1049 1080 1142 415 606 988 1050 1081 1143 416 607 798 989 1051 1082 1113 1144 226 990 1021 1145 991 1146 802 1117 612 994 1087 1149 422 1057 805 1120 424 1059 234 425 1029 1060 235 426 617 808 1030 1061 1092 1123 236 427 618 1000 1031 1062 1093 1155 619 1094 0
x -812 271 653 876 335 717 908 176 558 749 940 49 431 272 845 113 495 686 877 527 718 909 368 559 750 623 273 464 305 878 146 560 942 51 433 624 815 656 847 115 688 879 147 338 529 911 179 370 561 752 943 434 625 466 657 116 307 498 689 880 148 339 530 912 562 753 53 244 626 817 85 658 849 499 690 149 340 531 913 181 372 754 245 818 86 277 659 341 723 182 946 246 437 819 87 278 119 883 915 183 565 756 947 56 247 438 820 88 852 120 916 184 375 757 948 439 630 662 121 503 694 153 344 535 917 758 249 440 90 663 854 122 504 695 886 345 536 727 918 377 568 759 60 633 824 283 665 697 888 156 347 538 188 570 252 443 634 93 475 125 316 507 698 889 157 539 730 921 571 762 953 253 444 94 285 667 126 508 699 890 349 540 731 572 63 636 827 286 668 700 891 159 350 541 191 573 255 637 96 287 478 860 319 510 701 892 160 542 733 383 574 256 638 829 97 288 479 320 511 893 161 925 193 575 766 66 257 448 639 830 98 480 671 862 130 321 512 703 894 162 353 544 194 385 576 958 640 831 290 481 672 863 322 704 163 354 545 736 195 386 959 259 450 100 864 132 705 546 928 387 769 960 69 260 833 101 292 483 865 324 515 706 547 197 388 961 484 675 325 516 898 357 930 580 771 962 262 644 835 103 485 676 867 326 167 358 740 199 390 963 72 263 645 836 104 486 327 518 900 168 741 932 200 582 773 964 455 646 296 137 519 901 169 583 965 456 297 870 138 520 711 552 743 393 966 266 107 298 680 521 712 903 362 553 744 585 967 267 458 108 872 140 522 745 395 968 77 905 937 587 778 969 78 460 651 842 301 142 715 174 556 938 206 779 970 47 461 652 302 684 875 334 525 907 557 748 398 780 971 1033 1095 1126 399 972 1034 1127 591 1066 401 783 974 1036 1098 1129 211 975 1006 1130 594 785 1069 1100 213 404 1008 1039 405 596 787 1040 1071 1102 406 597 788 1041 1072 1103 216 598 980 1011 1073 1135 981 1136 600 982 1075 1137 219 601 792 983 1014 1076 1107 1138 411 602 793 984 1046 1077 1108 1139 603 794 985 1078 1109 1140 222 413 986 1017 1048 1141 223 414 796 1018 1049 1111 224 415 797 1019 1050 1112 607 989 1082 1144 417 608 799 990 1052 1083 1114 1145 227 418 609 1022 1053 1084 419 610 801 1054 1085 1116 420 993 1055 1148 421 612 994 1056 1087 1149 422 613 995 1057 1088 1150 423 614 805 1058 1089 1120 424 806 1059 1121 425 616 1060 1091 426 808 1061 1123 236 618 809 1031 1093 1124 428 810 1001 1063 1125 1156 0
x -48 430 812 462 112 303 685 876 526 908 176 558 749 813 272 654 877 336 718 909 177 559 750 941 50 432 273 846 114 496 687 878 528 719 910 369 560 751 624 274 465 306 879 147 561 943 52 434 625 816 657 848 116 689 880 148 339 530 912 180 371 562 753 944 435 626 467 658 117 308 499 690 881 149 340 531 913 563 754 54 245 627 818 86 659 850 500 691 150 341 532 914 182 373 755 246 819 87 278 660 342 724 183 947 247 438 820 88 279 120 884 916 184 566 757 948 57 248 439 821 89 853 121 917 185 376 758 949 440 631 663 122 504 695 154 345 536 918 759 250 441 91 664 855 123 505 696 887 346 537 728 919 378 569 760 61 634 825 284 666 698 889 157 348 539 189 571 253 444 635 94 476 126 317 508 699 890 158 540 731 922 572 763 954 254 445 95 286 668 127 509 700 891 350 541 732 573 64 637 828 287 669 701 892 160 351 542 192 574 256 638 97 288 479 861 320 511 702 893 161 543 734 384 575 257 639 830 98 289 480 321 512 894 162 926 194 576 767 67 258 449 640 831 99 481 672 863 131 322 513 704 895 163 354 545 195 386 577 959 641 832 291 482 673 864 323 705 164 355 546 737 196 387 960 260 451 101 865 133 706 547 929 388 770 961 70 261 834 102 293 484 866 325 516 707 548 198 389 962 485 676 326 517 899 358 931 581 772 963 263 645 836 104 486 677 868 327 168 359 741 200 391 964 73 264 646 837 105 487 328 519 901 169 742 933 201 583 774 965 456 647 297 138 520 902 170 584 966 457 298 871 139 521 712 553 744 394 967 267 108 299 681 522 713 904 363 554 745 586 968 268 459 109 873 141 523 746 396 969 78 906 938 588 779 970 429 620 811 461 652 111 302 684 143 334 525 716 907 175 748 207 1002 208 399 590 781 1003 1034 1065 1096 209 973 1004 1128 210 592 1005 1067 402 975 1037 1130 594 1069 596 787 978 1071 1102 1133 215 406 1010 1041 407 598 1042 1073 408 790 981 1043 1105 1136 218 409 600 982 1013 1044 1075 1137 792 983 1107 1138 411 602 984 1046 1077 1139 412 603 794 985 1047 1078 1109 1140 222 986 1017 1141 223 414 796 1018 1049 1111 224 415 606 988 1019 1050 1081 1143 416 607 989 1051 1082 1144 417 608 799 990 1052 1083 1114 1145 227 991 1022 1146 992 1147 803 1118 613 995 1088 1150 423 1058 806 1121 425 1060 235 426 1030 1061 236 427 618 809 1031 1062 1093 1124 237 428 619 1001 1032 1063 1094 1156 0
x -430 271 844 112 494 685 526 717 367 940 49 431 813 463 113 304 686 877 527 909 177 559 750 814 273 655 878 337 719 910 178 560 751 942 51 433 274 847 115 497 688 879 529 720 911 370 561 752 625 275 466 307 880 148 562 944 53 435 626 817 658 849 117 690 881 149 340 531 913 181 372 563 754 945 436 627 468 659 118 309 500 691 882 150 341 532 914 564 755 55 246 628 819 87 660 851 501 692 151 342 533 915 183 374 756 247 820 88 279 661 343 725 184 948 248 439 821 89 280 121 885 917 185 567 758 949 58 249 440 822 90 854 122 918 186 377 759 950 441 632 664 123 505 696 155 346 537 919 760 251 442 92 665 856 124 506 697 888 347 538 729 920 379 570 761 62 635 826 285 667 699 890 158 349 540 190 572 254 445 636 95 477 127 318 509 700 891 159 541 732 923 573 764 955 255 446 96 287 669 128 510 701 892 351 542 733 574 65 638 829 288 670 702 893 161 352 543 193 575 257 639 98 289 480 862 321 512 703 894 162 544 735 385 576 258 640 831 99 290 481 322 513 895 163 927 195 577 768 68 259 450 641 832 100 482 673 864 132 323 514 705 896 164 355 546 196 387 578 960 642 833 292 483 674 865 324 706 165 356 547 738 197 388 961 261 452 102 866 134 707 548 930 389 771 962 71 262 835 103 294 485 867 326 517 708 549 199 390 963 486 677 327 518 900 359 932 582 773 964 264 646 837 105 487 678 869 328 169 360 742 201 392 965 74 265 647 838 106 488 329 520 902 170 743 934 202 584 775 966 457 648 298 139 521 903 171 585 967 458 299 872 140 522 713 554 745 395 968 268 109 300 682 523 714 905 364 555 746 587 969 269 460 110 874 142 524 747 397 970 47 238 811 79 843 907 175 366 748 939 398 589 780 971 1033 1064 1095 1126 399 781 972 1034 1096 1127 400 973 1035 1128 592 1067 402 784 975 1037 1099 1130 212 976 1007 1131 595 786 1070 1101 214 405 1009 1040 406 597 788 1041 1072 1103 407 598 789 1042 1073 1104 217 599 981 1012 1074 1136 982 1137 601 983 1076 1138 220 602 793 984 1015 1077 1108 1139 412 603 794 985 1047 1078 1109 1140 604 795 986 1079 1110 1141 223 414 987 1018 1049 1142 224 415 797 1019 1050 1112 225 416 798 1020 1051 1113 608 990 1083 1145 418 609 800 991 1053 1084 1115 1146 228 419 610 1023 1054 1085 420 611 802 1055 1086 1117 421 994 1056 1149 422 613 995 1057 1088 1150 423 614 996 1058 1089 1151 424 615 806 1059 1090 1121 425 807 1060 1122 426 617 1061 1092 427 809 1062 1124 237 619 810 1032 1094 1125 0
x -239 430 812 80 271 653 844 112 494 876 335 908 176 367 558 749 431 272 845 113 495 686 527 718 368 941 50 432 814 464 114 305 687 878 528 910 178 560 751 815 274 656 879 338 720 911 179 561 752 943 52 434 275 848 116 498 689 880 530 721 912 371 562 753 626 276 467 308 881 149 563 945 54 436 627 818 659 850 118 691 882 150 341 532 914 182 373 564 755 946 437 628 469 660 119 310 501 692 883 151 342 533 915 565 756 56 247 629 820 88 661 852 502 693 152 343 534 916 184 375 757 248 821 89 280 662 344 726 185 949 249 440 822 90 281 122 886 918 186 568 759 950 59 250 441 823 91 855 123 919 187 378 760 951 442 633 665 124 506 697 156 347 538 920 761 252 443 93 666 857 125 507 698 889 348 539 730 921 380 571 762 63 636 827 286 668 700 891 159 350 541 191 573 255 446 637 96 478 128 319 510 701 892 160 542 733 924 574 765 956 256 447 97 288 670 129 511 702 893 352 543 734 575 66 639 830 289 671 703 894 162 353 544 194 576 258 640 99 290 481 863 322 513 704 895 163 545 736 386 577 259 641 832 100 291 482 323 514 896 164 928 196 578 769 69 260 451 642 833 101 483 674 865 133 324 515 706 897 165 356 547 197 388 579 961 643 834 293 484 675 866 325 707 166 357 548 739 198 389 962 262 453 103 867 135 708 549 931 390 772 963 72 263 836 104 295 486 868 327 518 709 550 200 391 964 487 678 328 519 901 360 933 583 774 965 265 647 838 106 488 679 870 329 170 361 743 202 393 966 75 266 648 839 107 489 330 521 903 171 744 935 203 585 776 967 458 649 299 140 522 904 172 586 968 459 300 873 141 523 714 555 746 396 969 269 110 301 683 524 715 906 365 556 747 588 970 238 79 270 652 493 684 875 334 525 716 557 939 398 589 1033 1064 208 1003 209 400 591 782 1004 1035 1066 1097 210 974 1005 1129 211 593 1006 1068 403 976 1038 1131 595 1070 597 788 979 1072 1103 1134 216 407 1011 1042 408 599 1043 1074 409 791 982 1044 1106 1137 219 410 601 983 1014 1045 1076 1138 793 984 1108 1139 412 603 985 1047 1078 1140 413 604 795 986 1048 1079 1110 1141 223 987 1018 1142 224 415 797 1019 1050 1112 225 416 607 989 1020 1051 1082 1144 417 608 990 1052 1083 1145 418 609 800 991 1053 1084 1115 1146 228 992 1023 1147 993 1148 804 1119 614 996 1089 1151 424 1059 807 1122 426 1061 236 427 1031 1062 237 428 619 810 1032 1063 1094 1125 0
x -48 239 430 812 80 271 462 653 112 303 494 335 717 908 176 749 940 240 431 813 81 272 654 845 113 495 877 336 909 177 368 559 750 432 273 846 114 496 687 528 719 369 942 51 433 815 465 115 306 688 879 529 911 179 561 752 816 275 657 880 339 721 912 180 562 753 944 53 435 276 849 117 499 690 881 531 722 913 372 563 754 627 277 468 309 882 150 564 946 55 437 628 819 660 851 119 692 883 151 342 533 915 183 374 565 756 947 438 629 470 661 120 311 502 693 884 152 343 534 916 566 757 57 248 630 821 89 662 853 503 694 153 344 535 917 185 376 758 249 822 90 281 663 345 727 186 950 250 441 823 91 282 123 887 919 187 569 760 951 60 251 442 824 92 856 124 920 188 379 761 952 443 634 666 125 507 698 157 348 539 921 762 253 444 94 667 858 126 508 699 890 349 540 731 922 381 572 763 64 637 828 287 669 701 892 160 351 542 192 574 256 447 638 97 479 129 320 511 702 893 161 543 734 925 575 766 957 257 448 98 289 671 130 512 703 894 353 544 735 576 67 640 831 290 672 704 895 163 354 545 195 577 259 641 100 291 482 864 323 514 705 896 164 546 737 387 578 260 642 833 101 292 483 324 515 897 165 929 197 579 770 70 261 452 643 834 102 484 675 866 134 325 516 707 898 166 357 548 198 389 580 962 644 835 294 485 676 867 326 708 167 358 549 740 199 390 963 263 454 104 868 136 709 550 932 391 773 964 73 264 837 105 296 487 869 328 519 710 551 201 392 965 488 679 329 520 902 361 934 584 775 966 266 648 839 107 489 680 871 330 171 362 744 203 394 967 76 267 649 840 108 490 331 522 904 172 745 936 204 586 777 968 459 650 300 141 523 905 173 587 969 460 301 874 142 524 715 556 747 397 970 47 461 843 302 875 716 366 557 939 207 398 589 780 971 1002 1033 1064 1095 1126 399 590 781 972 1034 1065 1096 1127 400 782 973 1035 1097 1128 401 974 1036 1129 593 1068 403 785 976 1038 1100 1131 213 977 1008 1132 596 787 1071 1102 215 406 1010 1041 407 598 789 1042 1073 1104 408 599 790 1043 1074 1105 218 600 982 1013 1075 1137 983 1138 602 984 1077 1139 221 603 794 985 1016 1078 1109 1140 413 604 795 986 1048 1079 1110 1141 605 796 987 1080 1111 1142 224 415 988 1019 1050 1143 225 416 798 1020 1051 1113 226 417 799 1021 1052 1114 609 991 1084 1146 419 610 801 992 1054 1085 1116 1147 229 420 611 1024 1055 1086 421 612 803 1056 1087 1118 422 995 1057 1150 423 614 996 1058 1089 1151 424 615 997 1059 1090 1152 425 616 807 1060 1091 1122 426 808 1061 1123 427 618 1062 1093 428 810 1063 1125 0
x -49 240 431 813 81 272 463 654 113 304 495 336 718 909 177 750 941 241 432 814 82 273 655 846 114 496 878 337 910 178 369 560 751 433 274 847 115 497 688 529 720 370 943 52 434 816 466 116 307 689 880 530 912 180 562 753 817 276 658 881 340 722 913 181 563 754 945 54 436 277 850 118 500 691 882 532 723 914 373 564 755 628 278 469 310 883 151 565 947 56 438 629 820 661 852 120 693 884 152 343 534 916 184 375 566 757 948 439 630 471 662 121 312 503 694 885 153 344 535 917 567 758 58 249 631 822 90 663 854 504 695 154 345 536 918 186 377 759 250 823 91 282 664 346 728 187 951 251 442 824 92 283 124 888 920 188 570 761 952 61 252 443 825 93 857 125 921 189 380 762 953 444 635 667 126 508 699 158 349 540 922 763 254 445 95 668 859 127 509 700 891 350 541 732 923 382 573 764 65 638 829 288 670 702 893 161 352 543 193 575 257 448 639 98 480 130 321 512 703 894 162 544 735 926 576 767 958 258 449 99 290 672 131 513 704 895 354 545 736 577 68 641 832 291 673 705 896 164 355 546 196 578 260 642 101 292 483 865 324 515 706 897 165 547 738 388 579 261 643 834 102 293 484 325 516 898 166 930 198 580 771 71 262 453 644 835 103 485 676 867 135 326 517 708 899 167 358 549 199 390 581 963 645 836 295 486 677 868 327 709 168 359 550 741 200 391 964 264 455 105 869 137 710 551 933 392 774 965 74 265 838 106 297 488 870 329 520 711 552 202 393 966 489 680 330 521 903 362 935 585 776 967 267 649 840 108 490 681 872 331 172 363 745 204 395 968 77 268 650 841 109 491 332 523 905 173 746 937 205 587 778 969 460 651 301 142 524 906 174 588 970 399 590 1034 1065 209 1004 210 401 592 783 1005 1036 1067 1098 211 975 1006 1130 212 594 1007 1069 404 977 1039 1132 596 1071 598 789 980 1073 1104 1135 217 408 1012 1043 409 600 1044 1075 410 792 983 1045 1107 1138 220 411 602 984 1015 1046 1077 1139 794 985 1109 1140 413 604 986 1048 1079 1141 414 605 796 987 1049 1080 1111 1142 224 988 1019 1143 225 416 798 1020 1051 1113 226 417 608 990 1021 1052 1083 1145 418 609 991 1053 1084 1146 419 610 801 992 1054 1085 1116 1147 229 993 1024 1148 994 1149 805 1120 615 997 1090 1152 425 1060 808 1123 427 1062 237 428 1032 1063 0
x -239 621 812 80 653 844 144 335 908 176 367 749 940 50 241 432 814 82 273 464 655 114 305 496 337 719 910 178 751 942 242 433 815 83 274 656 847 115 497 879 338 911 179 370 561 752 434 275 848 116 498 689 530 721 371 944 53 435 817 467 117 308 690 881 531 913 181 563 754 818 277 659 882 341 723 914 182 564 755 946 55 437 278 851 119 501 692 883 533 724 915 374 565 756 629 279 470 311 884 152 566 948 57 439 630 821 662 853 121 694 885 153 344 535 917 185 376 567 758 949 440 631 472 663 122 313 504 695 886 154 345 536 918 568 759 59 250 632 823 91 664 855 505 696 155 346 537 919 187 378 760 251 824 92 283 665 347 729 188 952 252 443 825 93 284 125 889 921 189 571 762 953 62 253 444 826 94 858 126 922 190 381 763 954 445 636 668 127 509 700 159 350 541 923 764 255 446 96 669 860 128 510 701 892 351 542 733 924 383 574 765 66 639 830 289 671 703 894 162 353 544 194 576 258 449 640 99 481 131 322 513 704 895 163 545 736 927 577 768 959 259 450 100 291 673 132 514 705 896 355 546 737 578 69 642 833 292 674 706 897 165 356 547 197 579 261 643 102 293 484 866 325 516 707 898 166 548 739 389 580 262 644 835 103 294 485 326 517 899 167 931 199 581 772 72 263 454 645 836 104 486 677 868 136 327 518 709 900 168 359 550 200 391 582 964 646 837 296 487 678 869 328 710 169 360 551 742 201 392 965 265 456 106 870 138 711 552 934 393 775 966 75 266 839 107 298 489 871 330 521 712 553 203 394 967 490 681 331 522 904 363 936 586 777 968 268 650 841 109 491 682 873 332 173 364 746 205 396 969 78 269 651 842 110 492 333 524 906 174 747 938 206 588 779 970 238 620 79 461 652 302 493 684 143 334 525 716 971 1126 208 399 590 781 972 1003 1034 1065 1096 1127 400 591 782 973 1035 1066 1097 1128 401 783 974 1036 1098 1129 402 975 1037 1130 594 1069 404 786 977 1039 1101 1132 214 978 1009 1133 597 788 1072 1103 216 407 1011 1042 408 599 790 1043 1074 1105 409 600 791 1044 1075 1106 219 601 983 1014 1076 1138 984 1139 603 985 1078 1140 222 604 795 986 1017 1079 1110 1141 414 605 796 987 1049 1080 1111 1142 606 797 988 1081 1112 1143 225 416 989 1020 1051 1144 226 417 799 1021 1052 1114 227 418 800 1022 1053 1115 610 992 1085 1147 420 611 802 993 1055 1086 1117 1148 230 421 612 1025 1056 1087 422 613 804 1057 1088 1119 423 996 1058 1151 424 615 997 1059 1090 1152 425 616 998 1060 1091 1153 426 617 808 1061 1092 1123 427 809 1062 1124 428 619 1063 1094 0
x -430 621 271 653 112 876 144 335 558 240 622 813 81 654 845 145 336 909 177 368 750 941 51 242 433 815 83 274 465 656 115 306 497 338 720 911 179 752 943 243 434 816 84 275 657 848 116 498 880 339 912 180 371 562 753 435 276 849 117 499 690 531 722 372 945 54 436 818 468 118 309 691 882 532 914 182 564 755 819 278 660 883 342 724 915 183 565 756 947 56 438 279 852 120 502 693 884 534 725 916 375 566 757 630 280 471 312 885 153 567 949 58 440 631 822 663 854 122 695 886 154 345 536 918 186 377 568 759 950 441 632 473 664 123 314 505 696 887 155 346 537 919 569 760 60 251 633 824 92 665 856 506 697 156 347 538 920 188 379 761 252 825 93 284 666 348 730 189 953 253 444 826 94 285 126 890 922 190 572 763 954 63 254 445 827 95 859 127 923 191 382 764 955 446 637 669 128 510 701 160 351 542 924 765 256 447 97 670 861 129 511 702 893 352 543 734 925 384 575 766 67 640 831 290 672 704 895 163 354 545 195 577 259 450 641 100 482 132 323 514 705 896 164 546 737 928 578 769 960 260 451 101 292 674 133 515 706 897 356 547 738 579 70 643 834 293 675 707 898 166 357 548 198 580 262 644 103 294 485 867 326 517 708 899 167 549 740 390 581 263 645 836 104 295 486 327 518 900 168 932 200 582 773 73 264 455 646 837 105 487 678 869 137 328 519 710 901 169 360 551 201 392 583 965 647 838 297 488 679 870 329 711 170 361 552 743 202 393 966 266 457 107 871 139 712 553 935 394 776 967 76 267 840 108 299 490 872 331 522 713 554 204 395 968 491 682 332 523 905 364 937 587 778 969 269 651 842 110 492 683 874 333 174 365 747 206 397 970 238 429 79 270 652 111 493 684 875 334 525 716 557 398 1033 400 591 1035 1066 210 1005 211 402 593 784 1006 1037 1068 1099 212 976 1007 1131 213 595 1008 1070 405 978 1040 1133 597 1072 599 790 981 1074 1105 1136 218 409 1013 1044 410 601 1045 1076 411 793 984 1046 1108 1139 221 412 603 985 1016 1047 1078 1140 795 986 1110 1141 414 605 987 1049 1080 1142 415 606 797 988 1050 1081 1112 1143 225 989 1020 1144 226 417 799 1021 1052 1114 227 418 609 991 1022 1053 1084 1146 419 610 992 1054 1085 1147 420 611 802 993 1055 1086 1117 1148 230 994 1025 1149 995 1150 806 1121 616 998 1091 1153 426 1061 809 1124 428 1063 0
x -239 621 812 80 462 653 844 303 144 335 717 176 367 940 431 622 272 654 113 877 145 336 559 241 623 814 82 655 846 146 337 910 178 369 751 942 52 243 434 816 84 275 466 657 116 307 498 339 721 912 180 753 944 244 435 817 85 276 658 849 117 499 881 340 913 181 372 563 754 436 277 850 118 500 691 532 723 373 946 55 437 819 469 119 310 692 883 533 915 183 565 756 820 279 661 884 343 725 916 184 566 757 948 57 439 280 853 121 503 694 885 535 726 917 376 567 758 631 281 472 313 886 154 568 950 59 441 632 823 664 855 123 696 887 155 346 537 919 187 378 569 760 951 442 633 474 665 124 315 506 697 888 156 347 538 920 570 761 61 252 634 825 93 666 857 507 698 157 348 539 921 189 380 762 253 826 94 285 667 349 731 190 954 254 445 827 95 286 127 891 923 191 573 764 955 64 255 446 828 96 860 128 924 192 383 765 956 447 638 670 129 511 702 161 352 543 925 766 257 448 98 671 862 130 512 703 894 353 544 735 926 385 576 767 68 641 832 291 673 705 896 164 355 546 196 578 260 451 642 101 483 133 324 515 706 897 165 547 738 929 579 770 961 261 452 102 293 675 134 516 707 898 357 548 739 580 71 644 835 294 676 708 899 167 358 549 199 581 263 645 104 295 486 868 327 518 709 900 168 550 741 391 582 264 646 837 105 296 487 328 519 901 169 933 201 583 774 74 265 456 647 838 106 488 679 870 138 329 520 711 902 170 361 552 202 393 584 966 648 839 298 489 680 871 330 712 171 362 553 744 203 394 967 267 458 108 872 140 713 554 936 395 777 968 77 268 841 109 300 491 873 332 523 714 555 205 396 969 492 683 333 524 906 365 938 588 779 970 47 429 270 843 111 493 684 875 525 716 907 366 557 748 780 971 1095 1126 972 1127 209 400 591 782 973 1004 1035 1066 1097 1128 401 592 783 974 1036 1067 1098 1129 402 784 975 1037 1099 1130 403 976 1038 1131 595 1070 405 787 978 1040 1102 1133 215 979 1010 1134 598 789 1073 1104 217 408 1012 1043 409 600 791 1044 1075 1106 410 601 792 1045 1076 1107 220 602 984 1015 1077 1139 985 1140 604 986 1079 1141 223 605 796 987 1018 1080 1111 1142 415 606 797 988 1050 1081 1112 1143 607 798 989 1082 1113 1144 226 417 990 1021 1052 1145 227 418 800 1022 1053 1115 228 419 801 1023 1054 1116 611 993 1086 1148 421 612 803 994 1056 1087 1118 1149 231 422 613 1026 1057 1088 423 614 805 1058 1089 1120 424 997 1059 1152 425 616 998 1060 1091 1153 426 617 999 1061 1092 1154 427 618 809 1062 1093 1124 428 810 1063 1125 0
x -239 621 812 80 462 844 303 494 876 144 176 367 558 240 622 813 81 463 654 845 304 145 336 718 177 368 941 432 623 273 655 114 878 146 337 560 242 624 815 83 656 847 147 338 911 179 370 752 943 53 244 435 817 85 276 467 658 117 308 499 340 722 913 181 754 945 245 436 818 86 277 659 850 118 500 882 341 914 182 373 564 755 437 278 851 119 501 692 533 724 374 947 56 438 820 470 120 311 693 884 534 916 184 566 757 821 280 662 885 344 726 917 185 567 758 949 58 440 281 854 122 504 695 886 536 727 918 377 568 759 632 282 473 314 887 155 569 951 60 442 633 824 665 856 124 697 888 156 347 538 920 188 379 570 761 952 443 634 475 666 125 316 507 698 889 157 348 539 921 571 762 62 253 635 826 94 667 858 508 699 158 349 540 922 190 381 763 254 827 95 286 668 350 732 191 955 255 446 828 96 287 128 892 924 192 574 765 956 65 256 447 829 97 861 129 925 193 384 766 957 448 639 671 130 512 703 162 353 544 926 767 258 449 99 672 863 131 513 704 895 354 545 736 927 386 577 768 69 642 833 292 674 706 897 165 356 547 197 579 261 452 643 102 484 134 325 516 707 898 166 548 739 930 580 771 962 262 453 103 294 676 135 517 708 899 358 549 740 581 72 645 836 295 677 709 900 168 359 550 200 582 264 646 105 296 487 869 328 519 710 901 169 551 742 392 583 265 647 838 106 297 488 329 520 902 170 934 202 584 775 75 266 457 648 839 107 489 680 871 139 330 521 712 903 171 362 553 203 394 585 967 649 840 299 490 681 872 331 713 172 363 554 745 204 395 968 268 459 109 873 141 714 555 937 396 778 969 78 269 842 110 301 492 874 333 524 715 556 206 397 970 620 461 652 843 302 143 334 366 939 589 1064 399 1034 401 592 1036 1067 211 1006 212 403 594 785 1007 1038 1069 1100 213 977 1008 1132 214 596 1009 1071 406 979 1041 1134 598 1073 600 791 982 1075 1106 1137 219 410 1014 1045 411 602 1046 1077 412 794 985 1047 1109 1140 222 413 604 986 1017 1048 1079 1141 796 987 1111 1142 415 606 988 1050 1081 1143 416 607 798 989 1051 1082 1113 1144 226 990 1021 1145 227 418 800 1022 1053 1115 228 419 610 992 1023 1054 1085 1147 420 611 993 1055 1086 1148 421 612 803 994 1056 1087 1118 1149 231 995 1026 1150 996 1151 807 1122 617 999 1092 1154 427 1062 810 1125 0
x -48 239 430 621 812 80 462 653 844 112 303 494 685 876 144 335 526 176 367 558 940 240 622 813 81 463 845 304 495 877 145 177 368 559 241 623 814 82 464 655 846 305 146 337 719 178 369 942 433 624 274 656 115 879 147 338 561 243 625 816 84 657 848 148 339 912 180 371 753 944 54 245 436 818 86 277 468 659 118 309 500 341 723 914 182 755 946 246 437 819 87 278 660 851 119 501 883 342 915 183 374 565 756 438 279 852 120 502 693 534 725 375 948 57 439 821 471 121 312 694 885 535 917 185 567 758 822 281 663 886 345 727 918 186 568 759 950 59 441 282 855 123 505 696 887 537 728 919 378 569 760 633 283 474 315 888 156 570 952 61 443 634 825 666 857 125 698 889 157 348 539 921 189 380 571 762 953 444 635 476 667 126 317 508 699 890 158 349 540 922 572 763 63 254 636 827 95 668 859 509 700 159 350 541 923 191 382 764 255 828 96 287 669 351 733 192 956 256 447 829 97 288 129 893 925 193 575 766 957 66 257 448 830 98 862 130 926 194 385 767 958 449 640 672 131 513 704 163 354 545 927 768 259 450 100 673 864 132 514 705 896 355 546 737 928 387 578 769 70 643 834 293 675 707 898 166 357 548 198 580 262 453 644 103 485 135 326 517 708 899 167 549 740 931 581 772 963 263 454 104 295 677 136 518 709 900 359 550 741 582 73 646 837 296 678 710 901 169 360 551 201 583 265 647 106 297 488 870 329 520 711 902 170 552 743 393 584 266 648 839 107 298 489 330 521 903 171 935 203 585 776 76 267 458 649 840 108 490 681 872 140 331 522 713 904 172 363 554 204 395 586 968 650 841 300 491 682 873 332 714 173 364 555 746 205 396 969 269 460 110 874 142 715 556 938 397 779 970 238 429 811 79 111 493 684 525 907 175 748 939 207 589 971 1002 1064 1126 781 972 1096 1127 973 1128 210 401 592 783 974 1005 1036 1067 1098 1129 402 593 784 975 1037 1068 1099 1130 403 785 976 1038 1100 1131 404 977 1039 1132 596 1071 406 788 979 1041 1103 1134 216 980 1011 1135 599 790 1074 1105 218 409 1013 1044 410 601 792 1045 1076 1107 411 602 793 1046 1077 1108 221 603 985 1016 1078 1140 986 1141 605 987 1080 1142 224 606 797 988 1019 1081 1112 1143 416 607 798 989 1051 1082 1113 1144 608 799 990 1083 1114 1145 227 418 991 1022 1053 1146 228 419 801 1023 1054 1116 229 420 802 1024 1055 1117 612 994 1087 1149 422 613 804 995 1057 1088 1119 1150 232 423 614 1027 1058 1089 424 615 806 1059 1090 1121 425 998 1060 1153 426 617 999 1061 1092 1154 427 618 1000 1062 1093 1155 428 619 810 1063 1094 1125 0
x -430 621 812 462 653 112 303 685 144 335 526 717 908 176 749 49 240 431 622 813 81 463 654 845 113 304 495 686 877 145 336 527 177 368 559 941 241 623 814 82 464 846 305 496 878 146 178 369 560 242 624 815 83 465 656 847 306 147 338 720 179 370 943 434 625 275 657 116 880 148 339 562 244 626 817 85 658 849 149 340 913 181 372 754 945 55 246 437 819 87 278 469 660 119 310 501 342 724 915 183 756 947 247 438 820 88 279 661 852 120 502 884 343 916 184 375 566 757 439 280 853 121 503 694 535 726 376 949 58 440 822 472 122 313 695 886 536 918 186 568 759 823 282 664 887 346 728 919 187 569 760 951 60 442 283 856 124 506 697 888 538 729 920 379 570 761 634 284 475 316 889 157 571 953 62 444 635 826 667 858 126 699 890 158 349 540 922 190 381 572 763 954 445 636 477 668 127 318 509 700 891 159 350 541 923 573 764 64 255 637 828 96 669 860 510 701 160 351 542 924 192 383 765 256 829 97 288 670 352 734 193 957 257 448 830 98 289 130 894 926 194 576 767 958 67 258 449 831 99 863 131 927 195 386 768 959 450 641 673 132 514 705 164 355 546 928 769 260 451 101 674 865 133 515 706 897 356 547 738 929 388 579 770 71 644 835 294 676 708 899 167 358 549 199 581 263 454 645 104 486 136 327 518 709 900 168 550 741 932 582 773 964 264 455 105 296 678 137 519 710 901 360 551 742 583 74 647 838 297 679 711 902 170 361 552 202 584 266 648 107 298 489 871 330 521 712 903 171 553 744 394 585 267 649 840 108 299 490 331 522 904 172 936 204 586 777 77 268 459 650 841 109 491 682 873 141 332 523 714 905 173 364 555 205 396 587 969 651 842 301 492 683 874 333 715 174 365 556 747 206 397 970 47 620 811 270 652 684 875 143 334 525 175 557 780 1095 590 1065 400 1035 402 593 1037 1068 212 1007 213 404 595 786 1008 1039 1070 1101 214 978 1009 1133 215 597 1010 1072 407 980 1042 1135 599 1074 601 792 983 1076 1107 1138 220 411 1015 1046 412 603 1047 1078 413 795 986 1048 1110 1141 223 414 605 987 1018 1049 1080 1142 797 988 1112 1143 416 607 989 1051 1082 1144 417 608 799 990 1052 1083 1114 1145 227 991 1022 1146 228 419 801 1023 1054 1116 229 420 611 993 1024 1055 1086 1148 421 612 994 1056 1087 1149 422 613 804 995 1057 1088 1119 1150 232 996 1027 1151 997 1152 808 1123 618 1000 1093 1155 428 1063 0
x -239 80 271 653 494 685 876 335 526 717 558 940 431 622 813 463 654 113 304 686 145 336 527 718 909 177 750 50 241 432 623 814 82 464 655 846 114 305 496 687 878 146 337 528 178 369 560 942 242 624 815 83 465 847 306 497 879 147 179 370 561 243 625 816 84 466 657 848 307 148 339 721 180 371 944 435 626 276 658 117 881 149 340 563 245 627 818 86 659 850 150 341 914 182 373 755 946 56 247 438 820 88 279 470 661 120 311 502 343 725 916 184 757 948 248 439 821 89 280 662 853 121 503 885 344 917 185 376 567 758 440 281 854 122 504 695 536 727 377 950 59 441 823 473 123 314 696 887 537 919 187 569 760 824 283 665 888 347 729 920 188 570 761 952 61 443 284 857 125 507 698 889 539 730 921 380 571 762 635 285 476 317 890 158 572 954 63 445 636 827 668 859 127 700 891 159 350 541 923 191 382 573 764 955 446 637 478 669 128 319 510 701 892 160 351 542 924 574 765 65 256 638 829 97 670 861 511 702 161 352 543 925 193 384 766 257 830 98 289 671 353 735 194 958 258 449 831 99 290 131 895 927 195 577 768 959 68 259 450 832 100 864 132 928 196 387 769 960 451 642 674 133 515 706 165 356 547 929 770 261 452 102 675 866 134 516 707 898 357 548 739 930 389 580 771 72 645 836 295 677 709 900 168 359 550 200 582 264 455 646 105 487 137 328 519 710 901 169 551 742 933 583 774 965 265 456 106 297 679 138 520 711 902 361 552 743 584 75 648 839 298 680 712 903 171 362 553 203 585 267 649 108 299 490 872 331 522 713 904 172 554 745 395 586 268 650 841 109 300 491 332 523 905 173 937 205 587 778 78 269 460 651 842 110 492 683 874 142 333 524 715 906 174 365 556 206 397 588 970 47 429 620 811 652 843 111 684 875 143 334 525 907 175 366 557 748 939 398 589 780 971 1033 1064 1095 1126 208 590 972 1003 1065 1127 782 973 1097 1128 974 1129 211 402 593 784 975 1006 1037 1068 1099 1130 403 594 785 976 1038 1069 1100 1131 404 786 977 1039 1101 1132 405 978 1040 1133 597 1072 407 789 980 1042 1104 1135 217 981 1012 1136 600 791 1075 1106 219 410 1014 1045 411 602 793 1046 1077 1108 412 603 794 1047 1078 1109 222 604 986 1017 1079 1141 987 1142 606 988 1081 1143 225 607 798 989 1020 1082 1113 1144 417 608 799 990 1052 1083 1114 1145 609 800 991 1084 1115 1146 228 419 992 1023 1054 1147 229 420 802 1024 1055 1117 230 421 803 1025 1056 1118 613 995 1088 1150 423 614 805 996 1058 1089 1120 1151 233 424 615 1028 1059 1090 425 616 807 1060 1091 1122 426 999 1061 1154 427 618 1000 1062 1093 1155 428 619 1001 1063 1094 1156 0
x -240 81 272 654 495 686 877 336 527 718 559 941 432 623 814 464 655 114 305 687 146 337 528 719 910 178 751 51 242 433 624 815 83 465 656 847 115 306 497 688 879 147 338 529 179 370 561 943 243 625 816 84 466 848 307 498 880 148 180 371 562 244 626 817 85 467 658 849 308 149 340 722 181 372 945 436 627 277 659 118 882 150 341 564 246 628 819 87 660 851 151 342 915 183 374 756 947 57 248 439 821 89 280 471 662 121 312 503 344 726 917 185 758 949 249 440 822 90 281 663 854 122 504 886 345 918 186 377 568 759 441 282 855 123 505 696 537 728 378 951 60 442 824 474 124 315 697 888 538 920 188 570 761 825 284 666 889 348 730 921 189 571 762 953 62 444 285 858 126 508 699 890 540 731 922 381 572 763 636 286 477 318 891 159 573 955 64 446 637 828 669 860 128 701 892 160 351 542 924 192 383 574 765 956 447 638 479 670 129 320 511 702 893 161 352 543 925 575 766 66 257 639 830 98 671 862 512 703 162 353 544 926 194 385 767 258 831 99 290 672 354 736 195 959 259 450 832 100 291 132 896 928 196 578 769 960 69 260 451 833 101 865 133 929 197 388 770 961 452 643 675 134 516 707 166 357 548 930 771 262 453 103 676 867 135 517 708 899 358 549 740 931 390 581 772 73 646 837 296 678 710 901 169 360 551 201 583 265 456 647 106 488 138 329 520 711 902 170 552 743 934 584 775 966 266 457 107 298 680 139 521 712 903 362 553 744 585 76 649 840 299 681 713 904 172 363 554 204 586 268 650 109 300 491 873 332 523 714 905 173 555 746 396 587 269 651 842 110 301 492 333 524 906 174 938 206 588 779 781 1096 591 1066 401 1036 403 594 1038 1069 213 1008 214 405 596 787 1009 1040 1071 1102 215 979 1010 1134 216 598 1011 1073 408 981 1043 1136 600 1075 602 793 984 1077 1108 1139 221 412 1016 1047 413 604 1048 1079 414 796 987 1049 1111 1142 224 415 606 988 1019 1050 1081 1143 798 989 1113 1144 417 608 990 1052 1083 1145 418 609 800 991 1053 1084 1115 1146 228 992 1023 1147 229 420 802 1024 1055 1117 230 421 612 994 1025 1056 1087 1149 422 613 995 1057 1088 1150 423 614 805 996 1058 1089 1120 1151 233 997 1028 1152 998 1153 809 1124 619 1001 1094 1156 0
x -239 430 80 271 653 112 494 685 876 335 526 717 558 241 82 273 655 496 687 878 337 528 719 560 942 433 624 815 465 656 115 306 688 147 338 529 720 911 179 752 52 243 434 625 816 84 466 657 848 116 307 498 689 880 148 339 530 180 371 562 944 244 626 817 85 467 849 308 499 881 149 181 372 563 245 627 818 86 468 659 850 309 150 341 723 182 373 946 437 628 278 660 119 883 151 342 565 247 629 820 88 661 852 152 343 916 184 375 757 948 58 249 440 822 90 281 472 663 122 313 504 345 727 918 186 759 950 250 441 823 91 282 664 855 123 505 887 346 919 187 378 569 760 442 283 856 124 506 697 538 729 379 952 61 443 825 475 125 316 698 889 539 921 189 571 762 826 285 667 890 349 731 922 190 572 763 954 63 445 286 859 127 509 700 891 541 732 923 382 573 764 637 287 478 319 892 160 574 956 65 447 638 829 670 861 129 702 893 161 352 543 925 193 384 575 766 957 448 639 480 671 130 321 512 703 894 162 353 544 926 576 767 67 258 640 831 99 672 863 513 704 163 354 545 927 195 386 768 259 832 100 291 673 355 737 196 960 260 451 833 101 292 133 897 929 197 579 770 961 70 261 452 834 102 866 134 930 198 389 771 962 453 644 676 135 517 708 167 358 549 931 772 263 454 104 677 868 136 518 709 900 359 550 741 932 391 582 773 74 647 838 297 679 711 902 170 361 552 202 584 266 457 648 107 489 139 330 521 712 903 171 553 744 935 585 776 967 267 458 108 299 681 140 522 713 904 363 554 745 586 77 650 841 300 682 714 905 173 364 555 205 587 269 651 110 301 492 874 333 524 715 906 174 556 747 397 588 47 429 620 811 652 843 111 493 875 143 334 716 175 366 557 939 398 589 780 1033 1064 1095 399 590 781 972 1034 1065 1096 1127 209 591 973 1004 1066 1128 783 974 1098 1129 975 1130 212 403 594 785 976 1007 1038 1069 1100 1131 404 595 786 977 1039 1070 1101 1132 405 787 978 1040 1102 1133 406 979 1041 1134 598 1073 408 790 981 1043 1105 1136 218 982 1013 1137 601 792 1076 1107 220 411 1015 1046 412 603 794 1047 1078 1109 413 604 795 1048 1079 1110 223 605 987 1018 1080 1142 988 1143 607 989 1082 1144 226 608 799 990 1021 1083 1114 1145 418 609 800 991 1053 1084 1115 1146 610 801 992 1085 1116 1147 229 420 993 1024 1055 1148 230 421 803 1025 1056 1118 231 422 804 1026 1057 1119 614 996 1089 1151 424 615 806 997 1059 1090 1121 1152 234 425 616 1029 1060 1091 426 617 808 1061 1092 1123 427 1000 1062 1155 428 619 1001 1063 1094 1156 0
x -621 462 653 844 303 144 335 367 940 240 431 81 272 654 113 495 686 877 336 527 718 559 242 83 274 656 497 688 879 338 529 720 561 943 434 625 816 466 657 116 307 689 148 339 530 721 912 180 753 53 244 435 626 817 85 467 658 849 117 308 499 690 881 149 340 531 181 372 563 945 245 627 818 86 468 850 309 500 882 150 182 373 564 246 628 819 87 469 660 851 310 151 342 724 183 374 947 438 629 279 661 120 884 152 343 566 248 630 821 89 662 853 153 344 917 185 376 758 949 59 250 441 823 91 282 473 664 123 314 505 346 728 919 187 760 951 251 442 824 92 283 665 856 124 506 888 347 920 188 379 570 761 443 284 857 125 507 698 539 730 380 953 62 444 826 476 126 317 699 890 540 922 190 572 763 827 286 668 891 350 732 923 191 573 764 955 64 446 287 860 128 510 701 892 542 733 924 383 574 765 638 288 479 320 893 161 575 957 66 448 639 830 671 862 130 703 894 162 353 544 926 194 385 576 767 958 449 640 481 672 131 322 513 704 895 163 354 545 927 577 768 68 259 641 832 100 673 864 514 705 164 355 546 928 196 387 769 260 833 101 292 674 356 738 197 961 261 452 834 102 293 134 898 930 198 580 771 962 71 262 453 835 103 867 135 931 199 390 772 963 454 645 677 136 518 709 168 359 550 932 773 264 455 105 678 869 137 519 710 901 360 551 742 933 392 583 774 75 648 839 298 680 712 903 171 362 553 203 585 267 458 649 108 490 140 331 522 713 904 172 554 745 936 586 777 968 268 459 109 300 682 141 523 714 905 364 555 746 587 78 651 842 301 683 715 906 174 365 556 206 588 238 429 79 652 843 111 493 684 875 334 525 716 907 366 557 748 971 1126 782 1097 592 1067 402 1037 404 595 1039 1070 214 1009 215 406 597 788 1010 1041 1072 1103 216 980 1011 1135 217 599 1012 1074 409 982 1044 1137 601 1076 603 794 985 1078 1109 1140 222 413 1017 1048 414 605 1049 1080 415 797 988 1050 1112 1143 225 416 607 989 1020 1051 1082 1144 799 990 1114 1145 418 609 991 1053 1084 1146 419 610 801 992 1054 1085 1116 1147 229 993 1024 1148 230 421 803 1025 1056 1118 231 422 613 995 1026 1057 1088 1150 423 614 996 1058 1089 1151 424 615 806 997 1059 1090 1121 1152 234 998 1029 1153 999 1154 810 1125 0
x -48 621 812 271 653 685 876 144 335 526 176 558 622 463 654 845 304 145 336 368 941 241 432 82 273 655 114 496 687 878 337 528 719 560 243 84 275 657 498 689 880 339 530 721 562 944 435 626 817 467 658 117 308 690 149 340 531 722 913 181 754 54 245 436 627 818 86 468 659 850 118 309 500 691 882 150 341 532 182 373 564 946 246 628 819 87 469 851 310 501 883 151 183 374 565 247 629 820 88 470 661 852 311 152 343 725 184 375 948 439 630 280 662 121 885 153 344 567 249 631 822 90 663 854 154 345 918 186 377 759 950 60 251 442 824 92 283 474 665 124 315 506 347 729 920 188 761 952 252 443 825 93 284 666 857 125 507 889 348 921 189 380 571 762 444 285 858 126 508 699 540 731 381 954 63 445 827 477 127 318 700 891 541 923 191 573 764 828 287 669 892 351 733 924 192 574 765 956 65 447 288 861 129 511 702 893 543 734 925 384 575 766 639 289 480 321 894 162 576 958 67 449 640 831 672 863 131 704 895 163 354 545 927 195 386 577 768 959 450 641 482 673 132 323 514 705 896 164 355 546 928 578 769 69 260 642 833 101 674 865 515 706 165 356 547 929 197 388 770 261 834 102 293 675 357 739 198 962 262 453 835 103 294 135 899 931 199 581 772 963 72 263 454 836 104 868 136 932 200 391 773 964 455 646 678 137 519 710 169 360 551 933 774 265 456 106 679 870 138 520 711 902 361 552 743 934 393 584 775 76 649 840 299 681 713 904 172 363 554 204 586 268 459 650 109 491 141 332 523 714 905 173 555 746 937 587 778 969 269 460 110 301 683 142 524 715 906 365 556 747 588 238 429 811 79 270 652 843 111 493 875 334 907 175 366 557 748 207 398 1002 1033 399 590 781 1034 1065 1096 400 591 782 973 1035 1066 1097 1128 210 592 974 1005 1067 1129 784 975 1099 1130 976 1131 213 404 595 786 977 1008 1039 1070 1101 1132 405 596 787 978 1040 1071 1102 1133 406 788 979 1041 1103 1134 407 980 1042 1135 599 1074 409 791 982 1044 1106 1137 219 983 1014 1138 602 793 1077 1108 221 412 1016 1047 413 604 795 1048 1079 1110 414 605 796 1049 1080 1111 224 606 988 1019 1081 1143 989 1144 608 990 1083 1145 227 609 800 991 1022 1084 1115 1146 419 610 801 992 1054 1085 1116 1147 611 802 993 1086 1117 1148 230 421 994 1025 1056 1149 231 422 804 1026 1057 1119 232 423 805 1027 1058 1120 615 997 1090 1152 425 616 807 998 1060 1091 1122 1153 235 426 617 1030 1061 1092 427 618 809 1062 1093 1124 428 1001 1063 1156 0
x -49 622 813 272 654 686 877 145 336 527 177 559 623 464 655 846 305 146 337 369 942 242 433 83 274 656 115 497 688 879 338 529 720 561 244 85 276 658 499 690 881 340 531 722 563 945 436 627 818 468 659 118 309 691 150 341 532 723 914 182 755 55 246 437 628 819 87 469 660 851 119 310 501 692 883 151 342 533 183 374 565 947 247 629 820 88 470 852 311 502 884 152 184 375 566 248 630 821 89 471 662 853 312 153 344 726 185 376 949 440 631 281 663 122 886 154 345 568 250 632 823 91 664 855 155 346 919 187 378 760 951 61 252 443 825 93 284 475 666 125 316 507 348 730 921 189 762 953 253 444 826 94 285 667 858 126 508 890 349 922 190 381 572 763 445 286 859 127 509 700 541 732 382 955 64 446 828 478 128 319 701 892 542 924 192 574 765 829 288 670 893 352 734 925 193 575 766 957 66 448 289 862 130 512 703 894 544 735 926 385 576 767 640 290 481 322 895 163 577 959 68 450 641 832 673 864 132 705 896 164 355 546 928 196 387 578 769 960 451 642 483 674 133 324 515 706 897 165 356 547 929 579 770 70 261 643 834 102 675 866 516 707 166 357 548 930 198 389 771 262 835 103 294 676 358 740 199 963 263 454 836 104 295 136 900 932 200 582 773 964 73 264 455 837 105 869 137 933 201 392 774 965 456 647 679 138 520 711 170 361 552 934 775 266 457 107 680 871 139 521 712 903 362 553 744 935 394 585 776 77 650 841 300 682 714 905 173 364 555 205 587 269 460 651 110 492 142 333 524 715 906 174 556 747 938 588 779 970 972 1127 783 1098 593 1068 403 1038 405 596 1040 1071 215 1010 216 407 598 789 1011 1042 1073 1104 217 981 1012 1136 218 600 1013 1075 410 983 1045 1138 602 1077 604 795 986 1079 1110 1141 223 414 1018 1049 415 606 1050 1081 416 798 989 1051 1113 1144 226 417 608 990 1021 1052 1083 1145 800 991 1115 1146 419 610 992 1054 1085 1147 420 611 802 993 1055 1086 1117 1148 230 994 1025 1149 231 422 804 1026 1057 1119 232 423 614 996 1027 1058 1089 1151 424 615 997 1059 1090 1152 425 616 807 998 1060 1091 1122 1153 235 999 1030 1154 1000 1155 0
x -239 430 80 653 844 112 494 685 876 335 526 717 908 367 558 749 50 623 814 273 655 687 878 146 337 528 178 560 624 465 656 847 306 147 338 370 943 243 434 84 275 657 116 498 689 880 339 530 721 562 245 86 277 659 500 691 882 341 532 723 564 946 437 628 819 469 660 119 310 692 151 342 533 724 915 183 756 56 247 438 629 820 88 470 661 852 120 311 502 693 884 152 343 534 184 375 566 948 248 630 821 89 471 853 312 503 885 153 185 376 567 249 631 822 90 472 663 854 313 154 345 727 186 377 950 441 632 282 664 123 887 155 346 569 251 633 824 92 665 856 156 347 920 188 379 761 952 62 253 444 826 94 285 476 667 126 317 508 349 731 922 190 763 954 254 445 827 95 286 668 859 127 509 891 350 923 191 382 573 764 446 287 860 128 510 701 542 733 383 956 65 447 829 479 129 320 702 893 543 925 193 575 766 830 289 671 894 353 735 926 194 576 767 958 67 449 290 863 131 513 704 895 545 736 927 386 577 768 641 291 482 323 896 164 578 960 69 451 642 833 674 865 133 706 897 165 356 547 929 197 388 579 770 961 452 643 484 675 134 325 516 707 898 166 357 548 930 580 771 71 262 644 835 103 676 867 517 708 167 358 549 931 199 390 772 263 836 104 295 677 359 741 200 964 264 455 837 105 296 137 901 933 201 583 774 965 74 265 456 838 106 870 138 934 202 393 775 966 457 648 680 139 521 712 171 362 553 935 776 267 458 108 681 872 140 522 713 904 363 554 745 936 395 586 777 78 651 842 301 683 715 906 174 365 556 206 588 47 811 270 461 843 302 684 875 525 175 366 557 939 589 780 1064 1095 208 399 1003 1034 400 591 782 1035 1066 1097 401 592 783 974 1036 1067 1098 1129 211 593 975 1006 1068 1130 785 976 1100 1131 977 1132 214 405 596 787 978 1009 1040 1071 1102 1133 406 597 788 979 1041 1072 1103 1134 407 789 980 1042 1104 1135 408 981 1043 1136 600 1075 410 792 983 1045 1107 1138 220 984 1015 1139 603 794 1078 1109 222 413 1017 1048 414 605 796 1049 1080 1111 415 606 797 1050 1081 1112 225 607 989 1020 1082 1144 990 1145 609 991 1084 1146 228 610 801 992 1023 1085 1116 1147 420 611 802 993 1055 1086 1117 1148 612 803 994 1087 1118 1149 231 422 995 1026 1057 1150 232 423 805 1027 1058 1120 233 424 806 1028 1059 1121 616 998 1091 1153 426 617 808 999 1061 1092 1123 1154 236 427 618 1031 1062 1093 428 619 810 1063 1094 1125 0
x -240 431 81 654 845 113 495 686 877 336 527 718 909 368 559 750 51 624 815 274 656 688 879 147 338 529 179 561 625 466 657 848 307 148 339 371 944 244 435 85 276 658 117 499 690 881 340 531 722 563 246 87 278 660 501 692 883 342 533 724 565 947 438 629 820 470 661 120 311 693 152 343 534 725 916 184 757 57 248 439 630 821 89 471 662 853 121 312 503 694 885 153 344 535 185 376 567 949 249 631 822 90 472 854 313 504 886 154 186 377 568 250 632 823 91 473 664 855 314 155 346 728 187 378 951 442 633 283 665 124 888 156 347 570 252 634 825 93 666 857 157 348 921 189 380 762 953 63 254 445 827 95 286 477 668 127 318 509 350 732 923 191 764 955 255 446 828 96 287 669 860 128 510 892 351 924 192 383 574 765 447 288 861 129 511 702 543 734 384 957 66 448 830 480 130 321 703 894 544 926 194 576 767 831 290 672 895 354 736 927 195 577 768 959 68 450 291 864 132 514 705 896 546 737 928 387 578 769 642 292 483 324 897 165 579 961 70 452 643 834 675 866 134 707 898 166 357 548 930 198 389 580 771 962 453 644 485 676 135 326 517 708 899 167 358 549 931 581 772 72 263 645 836 104 677 868 518 709 168 359 550 932 200 391 773 264 837 105 296 678 360 742 201 965 265 456 838 106 297 138 902 934 202 584 775 966 75 266 457 839 107 871 139 935 203 394 776 967 458 649 681 140 522 713 172 363 554 936 777 268 459 109 682 873 141 523 714 905 364 555 746 937 396 587 778 973 1128 784 1099 594 1069 404 1039 406 597 1041 1072 216 1011 217 408 599 790 1012 1043 1074 1105 218 982 1013 1137 219 601 1014 1076 411 984 1046 1139 603 1078 605 796 987 1080 1111 1142 224 415 1019 1050 416 607 1051 1082 417 799 990 1052 1114 1145 227 418 609 991 1022 1053 1084 1146 801 992 1116 1147 420 611 993 1055 1086 1148 421 612 803 994 1056 1087 1118 1149 231 995 1026 1150 232 423 805 1027 1058 1120 233 424 615 997 1028 1059 1090 1152 425 616 998 1060 1091 1153 426 617 808 999 1061 1092 1123 1154 236 1000 1031 1155 1001 1156 0
x -241 432 82 655 846 114 496 687 878 337 528 719 910 369 560 751 52 625 816 275 657 689 880 148 339 530 180 562 626 467 658 849 308 149 340 372 945 245 436 86 277 659 118 500 691 882 341 532 723 564 247 88 279 661 502 693 884 343 534 725 566 948 439 630 821 471 662 121 312 694 153 344 535 726 917 185 758 58 249 440 631 822 90 472 663 854 122 313 504 695 886 154 345 536 186 377 568 950 250 632 823 91 473 855 314 505 887 155 187 378 569 251 633 824 92 474 665 856 315 156 347 729 188 379 952 443 634 284 666 125 889 157 348 571 253 635 826 94 667 858 158 349 922 190 381 763 954 64 255 446 828 96 287 478 669 128 319 510 351 733 924 192 765 956 256 447 829 97 288 670 861 129 511 893 352 925 193 384 575 766 448 289 862 130 512 703 544 735 385 958 67 449 831 481 131 322 704 895 545 927 195 577 768 832 291 673 896 355 737 928 196 578 769 960 69 451 292 865 133 515 706 897 547 738 929 388 579 770 643 293 484 325 898 166 580 962 71 453 644 835 676 867 135 708 899 167 358 549 931 199 390 581 772 963 454 645 486 677 136 327 518 709 900 168 359 550 932 582 773 73 264 646 837 105 678 869 519 710 169 360 551 933 201 392 774 265 838 106 297 679 361 743 202 966 266 457 839 107 298 139 903 935 203 585 776 967 76 267 458 840 108 872 140 936 204 395 777 968 459 650 682 141 523 714 173 364 555 937 778 269 460 110 683 874 142 524 715 906 365 556 747 938 397 588 779 590 781 1065 1096 209 400 1004 1035 401 592 783 1036 1067 1098 402 593 784 975 1037 1068 1099 1130 212 594 976 1007 1069 1131 786 977 1101 1132 978 1133 215 406 597 788 979 1010 1041 1072 1103 1134 407 598 789 980 1042 1073 1104 1135 408 790 981 1043 1105 1136 409 982 1044 1137 601 1076 411 793 984 1046 1108 1139 221 985 1016 1140 604 795 1079 1110 223 414 1018 1049 415 606 797 1050 1081 1112 416 607 798 1051 1082 1113 226 608 990 1021 1083 1145 991 1146 610 992 1085 1147 229 611 802 993 1024 1086 1117 1148 421 612 803 994 1056 1087 1118 1149 613 804 995 1088 1119 1150 232 423 996 1027 1058 1151 233 424 806 1028 1059 1121 234 425 807 1029 1060 1122 617 999 1092 1154 427 618 809 1000 1062 1093 1124 1155 237 428 619 1032 1063 1094 0
x 1157 1188 1189 1220 1251 1190 1283 1160 1191 1253 1161 1192 1193 1224 1255 1286 1163 1256 1287 1288 1227 1258 1166 1228 1290 1167 1198 1260 1291 1230 1292 1169 1231 1262 1170 1201 1232 1202 1295 1172 1234 1265 1296 1204 1235 1297 1205 1298 1237 1299 1176 1207 1177 1239 1209 1271 1241 1180 1273 1181 1243 1274 1244 1275 1183 1214 1245 1276 1307 1215 1186 1217 1279 1310 1187 1280 11 12 19 20 21 22 23 24 25 26 27 30 32 33 34 38 39 41 42 43 45 0
x -1188 1219 1250 1158 1189 1190 1160 1284 1161 1223 1285 1162 1224 1255 1286 1163 1194 1164 1226 1196 1166 1197 1290 1167 1229 1260 1169 1262 1263 1294 1264 1295 1172 1296 1173 1235 1297 1174 1236 1298 1176 1269 1300 1301 1178 1209 1240 1271 1179 1272 1180 1181 1182 1213 1244 1275 1214 1245 1276 1184 1215 1246 1277 1308 1216 1247 1278 1309 1217 1187 1218 1280 1311 11 12 13 15 17 20 21 22 25 27 28 29 30 31 34 37 38 40 44 45 46 0
x -1188 1250 1281 1189 1251 1159 1190 1191 1222 1253 1192 1162 1193 1255 1286 1163 1194 1256 1195 1288 1165 1196 1227 1258 1289 1197 1290 1198 1260 1199 1292 1169 1231 1293 1201 1263 1171 1264 1295 1296 1235 1174 1267 1298 1206 1268 1176 1238 1269 1177 1301 1178 1209 1240 1271 1302 1272 1180 1242 1212 1274 1182 1214 1215 1246 1308 1185 1216 1186 1217 1280 12 14 20 21 22 23 24 25 26 27 28 31 33 34 35 39 40 42 43 44 46 0
x -1219 1158 1252 1283 1222 1192 1223 1254 1193 1225 1256 1287 1195 1226 1196 1259 1290 1198 1229 1291 1199 1230 1231 1170 1201 1232 1263 1171 1233 1264 1172 1203 1265 1296 1173 1235 1205 1236 1267 1298 1206 1237 1268 1176 1207 1269 1300 1177 1239 1271 1179 1303 1211 1181 1243 1274 1213 1244 1275 1245 1276 1307 1215 1216 1247 1309 1248 1280 16 18 19 20 24 25 27 28 29 31 33 34 35 42 43 46 0
x -1157 1188 1219 1250 1158 1189 1220 1159 1252 1160 1191 1253 1284 1192 1223 1285 1162 1193 1163 1287 1195 1226 1288 1165 1227 1166 1197 1228 1291 1230 1292 1231 1232 1171 1202 1295 1172 1203 1234 1265 1173 1204 1266 1297 1174 1205 1298 1238 1269 1300 1177 1239 1178 1209 1240 1241 1180 1211 1304 1212 1243 1244 1245 1276 1184 1308 1216 1247 1279 1187 1280 1311 13 14 15 16 17 20 23 24 26 30 31 32 35 36 37 38 41 43 46 0
x -1157 1281 1158 1189 1220 1190 1283 1160 1222 1223 1162 1193 1255 1286 1163 1194 1256 1195 1226 1257 1288 1165 1289 1166 1259 1229 1260 1292 1169 1262 1293 1232 1263 1294 1264 1295 1203 1234 1265 1173 1235 1236 1298 1237 1207 1238 1269 1208 1239 1178 1209 1240 1179 1210 1303 1211 1181 1212 1274 1305 1182 1213 1183 1215 1246 1308 1185 1216 1247 1278 1186 1217 1279 1310 1218 1249 1280 1311 12 17 19 20 21 25 26 28 29 30 32 34 35 36 43 44 0
x -1157 1250 1281 1189 1220 1251 1221 1191 1253 1284 1192 1223 1193 1224 1286 1194 1225 1287 1257 1288 1227 1289 1197 1290 1229 1260 1230 1200 1293 1170 1201 1263 1294 1233 1264 1295 1234 1235 1266 1174 1236 1206 1207 1269 1300 1239 1270 1301 1271 1302 1179 1241 1180 1211 1242 1273 1304 1182 1213 1244 1275 1306 1214 1276 1184 1215 1185 1216 1278 1309 1186 1217 1279 1187 1249 12 13 15 16 17 18 21 24 25 27 31 32 33 36 37 38 39 42 44 0
x -1188 1251 1282 1190 1221 1160 1284 1192 1223 1285 1162 1255 1286 1163 1194 1256 1287 1195 1226 1257 1288 1165 1196 1227 1289 1166 1197 1290 1198 1229 1260 1291 1168 1199 1230 1231 1170 1201 1232 1263 1294 1171 1202 1173 1266 1297 1205 1236 1206 1268 1176 1238 1300 1239 1301 1209 1240 1210 1272 1303 1180 1304 1181 1274 1305 1275 1214 1276 1307 1184 1215 1246 1277 1185 1278 1309 1186 1248 1218 1249 1311 13 14 15 18 20 21 22 26 27 29 30 31 33 35 36 37 44 45 0
x -1157 1219 1250 1158 1189 1220 1282 1159 1190 1221 1160 1222 1161 1254 1285 1162 1224 1286 1163 1194 1256 1195 1226 1288 1165 1227 1258 1166 1228 1259 1290 1291 1168 1199 1261 1292 1169 1200 1231 1262 1201 1232 1171 1233 1264 1295 1172 1203 1235 1266 1297 1174 1205 1267 1298 1206 1237 1238 1269 1300 1177 1208 1270 1209 1240 1272 1303 1273 1304 1181 1243 1274 1305 1182 1213 1275 1306 1245 1276 1184 1215 1308 1185 1247 1278 1248 1310 1187 11 12 13 15 16 17 18 19 22 25 26 28 32 33 34 37 38 39 40 43 45 0
x -1157 1188 1281 1189 1220 1251 1190 1221 1283 1160 1191 1222 1253 1285 1162 1224 1286 1194 1256 1195 1226 1196 1227 1258 1289 1197 1198 1260 1291 1230 1261 1292 1293 1170 1201 1232 1263 1171 1202 1264 1172 1234 1173 1204 1235 1266 1297 1174 1175 1299 1176 1269 1177 1208 1270 1178 1240 1241 1272 1303 1211 1273 1304 1243 1274 1182 1213 1275 1306 1183 1214 1307 1184 1277 1216 1247 1309 1186 1217 1248 1310 1218 1280 11 12 14 15 16 19 21 22 23 27 28 30 31 32 34 36 37 38 45 46 0
x -1157 1188 1219 1189 1220 1251 1159 1190 1252 1283 1160 1253 1223 1254 1255 1286 1194 1225 1287 1257 1288 1165 1196 1258 1166 1228 1259 1260 1168 1261 1292 1169 1262 1293 1263 1294 1171 1233 1264 1172 1265 1173 1235 1174 1205 1175 1206 1176 1300 1177 1208 1239 1270 1301 1178 1240 1302 1179 1210 1241 1303 1211 1274 1305 1183 1276 1307 1184 1215 1246 1308 1248 1310 1218 1280 1311 14 16 17 18 19 20 23 26 27 29 33 34 35 38 39 40 41 44 46 0
x -1188 1219 1250 1281 1189 1282 1159 1221 1252 1191 1253 1284 1161 1162 1255 1286 1225 1287 1164 1257 1165 1227 1289 1166 1197 1198 1168 1199 1230 1261 1169 1231 1293 1201 1294 1264 1295 1173 1297 1174 1267 1298 1206 1237 1268 1299 1176 1269 1208 1239 1270 1301 1271 1179 1210 1272 1303 1180 1242 1273 1244 1275 1214 1245 1184 1308 1216 1309 1186 1248 1218 1249 1280 12 14 15 16 17 20 22 23 24 28 29 31 32 33 35 37 38 39 46 0
x -1157 1188 1250 1281 1158 1220 1159 1190 1221 1252 1253 1284 1161 1223 1193 1163 1287 1164 1195 1226 1288 1165 1196 1258 1289 1259 1290 1291 1261 1231 1262 1294 1202 1264 1295 1203 1265 1296 1204 1174 1298 1175 1237 1238 1269 1300 1177 1270 1271 1210 1241 1303 1180 1273 1181 1212 1305 1213 1246 1185 1247 1309 1186 1217 1279 1310 1187 1218 1249 12 13 17 18 19 20 21 24 27 28 30 34 35 36 39 40 41 42 45 0
x -1157 1281 1220 1283 1222 1253 1161 1254 1285 1162 1224 1255 1163 1194 1225 1287 1164 1226 1257 1288 1258 1197 1228 1290 1291 1168 1199 1230 1261 1292 1169 1200 1231 1262 1171 1202 1264 1295 1203 1265 1296 1173 1204 1235 1297 1205 1267 1298 1175 1237 1268 1269 1300 1208 1239 1301 1209 1240 1179 1210 1241 1272 1303 1273 1304 1181 1212 1305 1182 1306 1214 1245 1307 1215 1246 1247 1278 1310 1218 1249 1280 1311 11 12 15 16 17 18 21 23 24 25 29 30 32 33 34 36 38 39 40 0
x -1157 1281 1158 1251 1159 1190 1221 1252 1283 1160 1222 1253 1161 1254 1285 1193 1224 1194 1225 1256 1164 1195 1226 1257 1288 1196 1227 1258 1289 1197 1259 1290 1167 1198 1260 1291 1168 1199 1169 1231 1293 1232 1263 1171 1233 1172 1203 1296 1266 1297 1174 1236 1298 1206 1268 1299 1176 1300 1208 1270 1301 1209 1240 1302 1303 1180 1212 1274 1182 1244 1275 1183 1214 1307 1215 1277 1308 1247 1279 1187 1280 1311 11 14 16 18 19 20 21 22 25 28 29 31 35 36 37 40 41 42 43 46 0
x -1188 1219 1281 1251 1190 1221 1283 1191 1253 1192 1223 1254 1255 1286 1194 1225 1256 1164 1195 1257 1288 1165 1196 1289 1166 1167 1198 1229 1291 1168 1199 1292 1231 1262 1201 1294 1203 1234 1265 1173 1204 1297 1174 1236 1298 1175 1237 1268 1207 1238 1239 1270 1302 1179 1272 1303 1180 1211 1242 1181 1212 1243 1274 1306 1183 1214 1245 1276 1184 1215 1246 1247 1278 1309 1248 1279 1187 1249 1280 13 14 16 17 18 19 22 24 25 26 30 31 33 34 35 37 39 40 41 0
x -1157 1250 1158 1251 1283 1160 1222 1253 1161 1192 1223 1285 1162 1193 1255 1286 1163 1194 1225 1164 1226 1257 1165 1196 1289 1290 1167 1198 1291 1199 1261 1292 1201 1232 1171 1295 1172 1234 1204 1235 1174 1298 1175 1206 1237 1299 1176 1238 1269 1208 1270 1301 1209 1240 1271 1303 1180 1211 1242 1273 1181 1274 1305 1182 1244 1275 1306 1214 1245 1276 1184 1246 1277 1185 1216 1278 1217 1248 1279 1310 1280 13 14 17 19 20 21 22 23 26 29 30 32 36 37 38 41 42 43 44 0
x -1188 1158 1251 1282 1283 1160 1191 1222 1253 1254 1285 1224 1286 1194 1256 1287 1164 1195 1226 1257 1258 1289 1166 1197 1228 1259 1290 1167 1198 1229 1260 1199 1230 1261 1292 1200 1293 1170 1201 1232 1263 1171 1172 1234 1265 1296 1204 1235 1266 1205 1236 1237 1268 1299 1176 1207 1238 1269 1177 1301 1178 1209 1240 1241 1180 1211 1242 1273 1304 1274 1305 1182 1213 1244 1306 1183 1214 1245 1246 1277 1185 1278 1309 1186 1248 1279 1218 1249 1311 12 15 16 17 18 19 20 23 25 26 27 31 32 34 35 36 38 40 41 42 0
x -1188 1250 1281 1282 1190 1221 1253 1223 1285 1162 1224 1163 1164 1226 1227 1258 1290 1229 1260 1291 1168 1230 1261 1292 1169 1200 1293 1170 1171 1233 1203 1266 1297 1205 1236 1237 1207 1238 1269 1300 1177 1208 1239 1270 1178 1240 1271 1179 1241 1242 1181 1274 1213 1244 1183 1245 1184 1277 1308 1216 1247 1278 1186 1248 1310 1187 1218 1249 1280 15 18 20 21 22 23 24 27 30 31 33 37 38 39 42 43 44 45 0
x -1250 1281 1160 1191 1222 1253 1284 1161 1192 1223 1285 1162 1194 1225 1165 1227 1258 1166 1259 1290 1229 1260 1291 1168 1199 1293 1170 1201 1263 1294 1202 1233 1264 1203 1204 1235 1266 1174 1205 1298 1206 1237 1176 1269 1208 1239 1178 1209 1302 1303 1180 1211 1242 1273 1181 1212 1274 1213 1244 1275 1306 1276 1184 1215 1246 1277 1308 1185 1216 1278 1309 1217 1279 1310 1187 1218 1311 11 13 14 15 16 17 18 19 20 21 24 26 27 28 32 33 35 36 37 39 41 42 43 0
x -1188 1219 1250 1220 1190 1283 1160 1191 1222 1253 1284 1161 1192 1223 1224 1255 1225 1256 1287 1164 1195 1288 1165 1196 1227 1258 1289 1197 1228 1259 1167 1291 1168 1199 1230 1261 1292 1169 1293 1170 1232 1263 1294 1264 1234 1173 1174 1205 1267 1175 1206 1268 1299 1238 1177 1208 1270 1209 1240 1179 1210 1241 1272 1211 1304 1181 1212 1243 1274 1182 1244 1275 1306 1215 1277 1308 1185 1186 1279 1310 1218 1249 1311 11 12 13 14 16 19 21 22 23 24 25 28 31 32 34 38 39 40 43 44 45 46 0
x -1188 1281 1158 1189 1220 1251 1282 1190 1221 1252 1283 1191 1192 1223 1255 1286 1163 1256 1287 1164 1195 1226 1257 1288 1196 1289 1166 1197 1228 1290 1167 1198 1260 1291 1168 1230 1261 1292 1232 1263 1294 1171 1233 1295 1172 1203 1234 1173 1204 1174 1236 1267 1176 1207 1269 1300 1177 1270 1178 1209 1302 1210 1272 1303 1211 1304 1274 1305 1214 1276 1215 1246 1277 1186 1217 1187 1249 1280 12 13 15 16 17 18 19 20 21 22 25 27 28 29 33 34 36 37 38 40 42 43 44 0
x -1157 1219 1250 1158 1189 1220 1251 1159 1190 1222 1253 1161 1223 1254 1285 1193 1224 1255 1286 1163 1194 1226 1196 1258 1166 1228 1259 1229 1291 1168 1199 1292 1200 1231 1262 1293 1201 1294 1171 1295 1203 1234 1173 1235 1266 1268 1269 1177 1270 1301 1178 1209 1271 1179 1210 1303 1211 1242 1305 1275 1306 1214 1245 1307 1246 1308 1247 1278 1309 1217 1248 1279 1310 1187 12 16 17 20 22 23 24 25 26 29 32 33 35 39 40 41 44 45 46 0
x -1219 1250 1158 1189 1251 1282 1190 1221 1252 1283 1160 1253 1284 1223 1254 1285 1224 1163 1195 1226 1288 1165 1196 1227 1166 1197 1259 1167 1229 1168 1169 1200 1231 1262 1293 1170 1171 1202 1233 1264 1295 1172 1265 1296 1173 1266 1205 1267 1237 1268 1176 1207 1270 1240 1302 1179 1210 1303 1180 1211 1242 1273 1181 1212 1274 1305 1213 1275 1306 1183 1214 1245 1307 1184 1216 1278 1309 1217 1248 1249 1280 1311 11 12 16 17 18 19 20 21 22 23 26 28 29 30 34 35 37 38 39 41 43 44 45 0
x -1219 1250 1281 1189 1282 1190 1221 1191 1161 1192 1254 1162 1193 1225 1256 1287 1195 1257 1288 1165 1196 1258 1197 1290 1229 1291 1199 1230 1169 1262 1232 1263 1294 1171 1202 1295 1203 1296 1204 1266 1174 1205 1175 1268 1176 1269 1177 1208 1270 1209 1271 1210 1241 1303 1180 1211 1304 1181 1212 1305 1182 1275 1306 1214 1276 1307 1184 1185 1216 1247 1278 1309 1279 1280 1311 11 12 15 16 17 18 21 23 24 25 26 27 30 33 34 36 40 41 42 45 46 0
x -1157 1219 1250 1189 1282 1221 1160 1191 1222 1284 1254 1285 1162 1193 1255 1286 1194 1256 1287 1164 1195 1165 1196 1227 1258 1259 1167 1198 1291 1230 1261 1292 1169 1200 1293 1170 1232 1171 1202 1203 1234 1265 1296 1204 1266 1297 1174 1236 1237 1176 1238 1208 1178 1209 1271 1179 1210 1241 1211 1242 1273 1181 1212 1243 1274 1213 1244 1275 1183 1214 1307 1184 1246 1308 1216 1247 1309 1186 1310 1218 1311 11 12 14 15 16 17 18 19 20 21 22 23 24 27 29 30 31 35 36 38 39 40 42 44 45 46 0
x -1157 1219 1281 1158 1189 1282 1221 1252 1160 1253 1284 1161 1192 1254 1193 1255 1225 1195 1258 1289 1197 1290 1167 1229 1260 1291 1230 1261 1169 1200 1231 1262 1293 1170 1201 1263 1294 1202 1233 1172 1296 1173 1204 1297 1174 1267 1175 1206 1237 1268 1176 1207 1238 1209 1271 1179 1272 1180 1242 1212 1243 1274 1182 1213 1306 1245 1276 1184 1215 1308 1185 1216 1279 1187 1218 13 15 17 18 19 22 24 25 26 27 28 31 34 35 37 41 42 43 46 0
x -1157 1188 1189 1220 1159 1221 1252 1283 1191 1253 1284 1254 1162 1286 1194 1256 1287 1164 1226 1257 1288 1165 1227 1258 1289 1166 1228 1259 1167 1291 1230 1261 1292 1231 1201 1263 1171 1202 1233 1295 1172 1265 1296 1235 1266 1297 1174 1205 1267 1298 1206 1237 1269 1177 1208 1270 1178 1209 1271 1210 1272 1242 1181 1243 1274 1305 1213 1306 1214 1245 1276 1215 1246 1247 1278 1309 1248 1310 1218 1249 12 15 17 18 19 20 21 22 23 24 25 28 30 31 32 36 37 39 40 41 43 45 46 0
x -1157 1188 1219 1281 1252 1283 1160 1191 1161 1192 1223 1224 1286 1163 1194 1164 1226 1165 1227 1197 1228 1291 1230 1169 1200 1170 1201 1232 1202 1234 1296 1173 1204 1266 1174 1298 1268 1238 1269 1177 1208 1270 1209 1240 1271 1179 1210 1273 1212 1243 1182 1244 1275 1306 1214 1245 1276 1246 1277 1216 1247 1217 1279 1218 1280 11 13 15 18 19 20 23 25 26 27 28 29 32 35 36 38 42 43 44 0
x -1188 1281 1158 1189 1251 1282 1159 1190 1283 1191 1222 1284 1161 1223 1285 1193 1224 1286 1194 1225 1256 1164 1195 1288 1227 1258 1289 1197 1259 1290 1167 1198 1291 1168 1199 1292 1169 1231 1170 1201 1263 1202 1295 1203 1234 1265 1173 1204 1266 1205 1236 1175 1268 1299 1176 1207 1238 1177 1208 1270 1178 1209 1240 1179 1241 1180 1211 1181 1243 1213 1244 1275 1306 1183 1184 1215 1308 1216 1247 1186 1279 1187 1249 1280 1311 12 13 14 18 19 20 21 22 23 24 25 26 29 31 32 33 37 38 40 41 42 44 46 0
x -1188 1219 1250 1189 1220 1251 1282 1252 1283 1160 1222 1253 1254 1255 1194 1256 1226 1257 1288 1227 1258 1228 1167 1199 1230 1261 1200 1231 1201 1263 1294 1264 1203 1265 1296 1173 1235 1266 1174 1267 1298 1175 1206 1268 1207 1269 1177 1239 1270 1271 1210 1180 1242 1273 1181 1182 1213 1244 1214 1245 1276 1307 1184 1246 1277 1308 1185 1309 1217 1248 1187 1218 1249 1280 1311 13 16 19 20 21 24 26 27 28 29 30 33 36 37 39 43 44 45 0
