p cnf 502 1563
-1 -6 43 0
1 -43 0
6 -43 0
-1 -6 -11 44 0
1 -44 0
6 -44 0
11 -44 0
-1 -6 -12 45 0
1 -45 0
6 -45 0
12 -45 0
-1 -6 -13 46 0
1 -46 0
6 -46 0
13 -46 0
-1 -6 -14 47 0
1 -47 0
6 -47 0
14 -47 0
-1 -6 -15 48 0
1 -48 0
6 -48 0
15 -48 0
-1 -7 49 0
1 -49 0
7 -49 0
-1 -7 -11 50 0
1 -50 0
7 -50 0
11 -50 0
-1 -7 -12 51 0
1 -51 0
7 -51 0
12 -51 0
-1 -7 -13 52 0
1 -52 0
7 -52 0
13 -52 0
-1 -7 -14 53 0
1 -53 0
7 -53 0
14 -53 0
-1 -7 -15 54 0
1 -54 0
7 -54 0
15 -54 0
-1 -8 55 0
1 -55 0
8 -55 0
-1 -8 -11 56 0
1 -56 0
8 -56 0
11 -56 0
-1 -8 -12 57 0
1 -57 0
8 -57 0
12 -57 0
-1 -8 -13 58 0
1 -58 0
8 -58 0
13 -58 0
-1 -8 -14 59 0
1 -59 0
8 -59 0
14 -59 0
-1 -8 -15 60 0
1 -60 0
8 -60 0
15 -60 0
-1 -9 61 0
1 -61 0
9 -61 0
-1 -9 -11 62 0
1 -62 0
9 -62 0
11 -62 0
-1 -9 -12 63 0
1 -63 0
9 -63 0
12 -63 0
-1 -9 -13 64 0
1 -64 0
9 -64 0
13 -64 0
-1 -9 -14 65 0
1 -65 0
9 -65 0
14 -65 0
-1 -9 -15 66 0
1 -66 0
9 -66 0
15 -66 0
-1 -10 67 0
1 -67 0
10 -67 0
-1 -10 -11 68 0
1 -68 0
10 -68 0
11 -68 0
-1 -10 -12 69 0
1 -69 0
10 -69 0
12 -69 0
-1 -10 -13 70 0
1 -70 0
10 -70 0
13 -70 0
-1 -10 -14 71 0
1 -71 0
10 -71 0
14 -71 0
-1 -10 -15 72 0
1 -72 0
10 -72 0
15 -72 0
-1 -11 73 0
1 -73 0
11 -73 0
-1 -12 74 0
1 -74 0
12 -74 0
-1 -13 75 0
1 -75 0
13 -75 0
-1 -14 76 0
1 -76 0
14 -76 0
-1 -15 77 0
1 -77 0
15 -77 0
-2 -6 78 0
2 -78 0
6 -78 0
-2 -6 -11 79 0
2 -79 0
6 -79 0
11 -79 0
-2 -6 -12 80 0
2 -80 0
6 -80 0
12 -80 0
-2 -6 -13 81 0
2 -81 0
6 -81 0
13 -81 0
-2 -6 -14 82 0
2 -82 0
6 -82 0
14 -82 0
-2 -6 -15 83 0
2 -83 0
6 -83 0
15 -83 0
-2 -7 84 0
2 -84 0
7 -84 0
-2 -7 -11 85 0
2 -85 0
7 -85 0
11 -85 0
-2 -7 -12 86 0
2 -86 0
7 -86 0
12 -86 0
-2 -7 -13 87 0
2 -87 0
7 -87 0
13 -87 0
-2 -7 -14 88 0
2 -88 0
7 -88 0
14 -88 0
-2 -7 -15 89 0
2 -89 0
7 -89 0
15 -89 0
-2 -8 90 0
2 -90 0
8 -90 0
-2 -8 -11 91 0
2 -91 0
8 -91 0
11 -91 0
-2 -8 -12 92 0
2 -92 0
8 -92 0
12 -92 0
-2 -8 -13 93 0
2 -93 0
8 -93 0
13 -93 0
-2 -8 -14 94 0
2 -94 0
8 -94 0
14 -94 0
-2 -8 -15 95 0
2 -95 0
8 -95 0
15 -95 0
-2 -9 96 0
2 -96 0
9 -96 0
-2 -9 -11 97 0
2 -97 0
9 -97 0
11 -97 0
-2 -9 -12 98 0
2 -98 0
9 -98 0
12 -98 0
-2 -9 -13 99 0
2 -99 0
9 -99 0
13 -99 0
-2 -9 -14 100 0
2 -100 0
9 -100 0
14 -100 0
-2 -9 -15 101 0
2 -101 0
9 -101 0
15 -101 0
-2 -10 102 0
2 -102 0
10 -102 0
-2 -10 -11 103 0
2 -103 0
10 -103 0
11 -103 0
-2 -10 -12 104 0
2 -104 0
10 -104 0
12 -104 0
-2 -10 -13 105 0
2 -105 0
10 -105 0
13 -105 0
-2 -10 -14 106 0
2 -106 0
10 -106 0
14 -106 0
-2 -10 -15 107 0
2 -107 0
10 -107 0
15 -107 0
-2 -11 108 0
2 -108 0
11 -108 0
-2 -12 109 0
2 -109 0
12 -109 0
-2 -13 110 0
2 -110 0
13 -110 0
-2 -14 111 0
2 -111 0
14 -111 0
-2 -15 112 0
2 -112 0
15 -112 0
-3 -6 113 0
3 -113 0
6 -113 0
-3 -6 -11 114 0
3 -114 0
6 -114 0
11 -114 0
-3 -6 -12 115 0
3 -115 0
6 -115 0
12 -115 0
-3 -6 -13 116 0
3 -116 0
6 -116 0
13 -116 0
-3 -6 -14 117 0
3 -117 0
6 -117 0
14 -117 0
-3 -6 -15 118 0
3 -118 0
6 -118 0
15 -118 0
-3 -7 119 0
3 -119 0
7 -119 0
-3 -7 -11 120 0
3 -120 0
7 -120 0
11 -120 0
-3 -7 -12 121 0
3 -121 0
7 -121 0
12 -121 0
-3 -7 -13 122 0
3 -122 0
7 -122 0
13 -122 0
-3 -7 -14 123 0
3 -123 0
7 -123 0
14 -123 0
-3 -7 -15 124 0
3 -124 0
7 -124 0
15 -124 0
-3 -8 125 0
3 -125 0
8 -125 0
-3 -8 -11 126 0
3 -126 0
8 -126 0
11 -126 0
-3 -8 -12 127 0
3 -127 0
8 -127 0
12 -127 0
-3 -8 -13 128 0
3 -128 0
8 -128 0
13 -128 0
-3 -8 -14 129 0
3 -129 0
8 -129 0
14 -129 0
-3 -8 -15 130 0
3 -130 0
8 -130 0
15 -130 0
-3 -9 131 0
3 -131 0
9 -131 0
-3 -9 -11 132 0
3 -132 0
9 -132 0
11 -132 0
-3 -9 -12 133 0
3 -133 0
9 -133 0
12 -133 0
-3 -9 -13 134 0
3 -134 0
9 -134 0
13 -134 0
-3 -9 -14 135 0
3 -135 0
9 -135 0
14 -135 0
-3 -9 -15 136 0
3 -136 0
9 -136 0
15 -136 0
-3 -10 137 0
3 -137 0
10 -137 0
-3 -10 -11 138 0
3 -138 0
10 -138 0
11 -138 0
-3 -10 -12 139 0
3 -139 0
10 -139 0
12 -139 0
-3 -10 -13 140 0
3 -140 0
10 -140 0
13 -140 0
-3 -10 -14 141 0
3 -141 0
10 -141 0
14 -141 0
-3 -10 -15 142 0
3 -142 0
10 -142 0
15 -142 0
-3 -11 143 0
3 -143 0
11 -143 0
-3 -12 144 0
3 -144 0
12 -144 0
-3 -13 145 0
3 -145 0
13 -145 0
-3 -14 146 0
3 -146 0
14 -146 0
-3 -15 147 0
3 -147 0
15 -147 0
-4 -6 148 0
4 -148 0
6 -148 0
-4 -6 -11 149 0
4 -149 0
6 -149 0
11 -149 0
-4 -6 -12 150 0
4 -150 0
6 -150 0
12 -150 0
-4 -6 -13 151 0
4 -151 0
6 -151 0
13 -151 0
-4 -6 -14 152 0
4 -152 0
6 -152 0
14 -152 0
-4 -6 -15 153 0
4 -153 0
6 -153 0
15 -153 0
-4 -7 154 0
4 -154 0
7 -154 0
-4 -7 -11 155 0
4 -155 0
7 -155 0
11 -155 0
-4 -7 -12 156 0
4 -156 0
7 -156 0
12 -156 0
-4 -7 -13 157 0
4 -157 0
7 -157 0
13 -157 0
-4 -7 -14 158 0
4 -158 0
7 -158 0
14 -158 0
-4 -7 -15 159 0
4 -159 0
7 -159 0
15 -159 0
-4 -8 160 0
4 -160 0
8 -160 0
-4 -8 -11 161 0
4 -161 0
8 -161 0
11 -161 0
-4 -8 -12 162 0
4 -162 0
8 -162 0
12 -162 0
-4 -8 -13 163 0
4 -163 0
8 -163 0
13 -163 0
-4 -8 -14 164 0
4 -164 0
8 -164 0
14 -164 0
-4 -8 -15 165 0
4 -165 0
8 -165 0
15 -165 0
-4 -9 166 0
4 -166 0
9 -166 0
-4 -9 -11 167 0
4 -167 0
9 -167 0
11 -167 0
-4 -9 -12 168 0
4 -168 0
9 -168 0
12 -168 0
-4 -9 -13 169 0
4 -169 0
9 -169 0
13 -169 0
-4 -9 -14 170 0
4 -170 0
9 -170 0
14 -170 0
-4 -9 -15 171 0
4 -171 0
9 -171 0
15 -171 0
-4 -10 172 0
4 -172 0
10 -172 0
-4 -10 -11 173 0
4 -173 0
10 -173 0
11 -173 0
-4 -10 -12 174 0
4 -174 0
10 -174 0
12 -174 0
-4 -10 -13 175 0
4 -175 0
10 -175 0
13 -175 0
-4 -10 -14 176 0
4 -176 0
10 -176 0
14 -176 0
-4 -10 -15 177 0
4 -177 0
10 -177 0
15 -177 0
-4 -11 178 0
4 -178 0
11 -178 0
-4 -12 179 0
4 -179 0
12 -179 0
-4 -13 180 0
4 -180 0
13 -180 0
-4 -14 181 0
4 -181 0
14 -181 0
-4 -15 182 0
4 -182 0
15 -182 0
-5 -6 183 0
5 -183 0
6 -183 0
-5 -6 -11 184 0
5 -184 0
6 -184 0
11 -184 0
-5 -6 -12 185 0
5 -185 0
6 -185 0
12 -185 0
-5 -6 -13 186 0
5 -186 0
6 -186 0
13 -186 0
-5 -6 -14 187 0
5 -187 0
6 -187 0
14 -187 0
-5 -6 -15 188 0
5 -188 0
6 -188 0
15 -188 0
-5 -7 189 0
5 -189 0
7 -189 0
-5 -7 -11 190 0
5 -190 0
7 -190 0
11 -190 0
-5 -7 -12 191 0
5 -191 0
7 -191 0
12 -191 0
-5 -7 -13 192 0
5 -192 0
7 -192 0
13 -192 0
-5 -7 -14 193 0
5 -193 0
7 -193 0
14 -193 0
-5 -7 -15 194 0
5 -194 0
7 -194 0
15 -194 0
-5 -8 195 0
5 -195 0
8 -195 0
-5 -8 -11 196 0
5 -196 0
8 -196 0
11 -196 0
-5 -8 -12 197 0
5 -197 0
8 -197 0
12 -197 0
-5 -8 -13 198 0
5 -198 0
8 -198 0
13 -198 0
-5 -8 -14 199 0
5 -199 0
8 -199 0
14 -199 0
-5 -8 -15 200 0
5 -200 0
8 -200 0
15 -200 0
-5 -9 201 0
5 -201 0
9 -201 0
-5 -9 -11 202 0
5 -202 0
9 -202 0
11 -202 0
-5 -9 -12 203 0
5 -203 0
9 -203 0
12 -203 0
-5 -9 -13 204 0
5 -204 0
9 -204 0
13 -204 0
-5 -9 -14 205 0
5 -205 0
9 -205 0
14 -205 0
-5 -9 -15 206 0
5 -206 0
9 -206 0
15 -206 0
-5 -10 207 0
5 -207 0
10 -207 0
-5 -10 -11 208 0
5 -208 0
10 -208 0
11 -208 0
-5 -10 -12 209 0
5 -209 0
10 -209 0
12 -209 0
-5 -10 -13 210 0
5 -210 0
10 -210 0
13 -210 0
-5 -10 -14 211 0
5 -211 0
10 -211 0
14 -211 0
-5 -10 -15 212 0
5 -212 0
10 -212 0
15 -212 0
-5 -11 213 0
5 -213 0
11 -213 0
-5 -12 214 0
5 -214 0
12 -214 0
-5 -13 215 0
5 -215 0
13 -215 0
-5 -14 216 0
5 -216 0
14 -216 0
-5 -15 217 0
5 -217 0
15 -217 0
-6 -11 218 0
6 -218 0
11 -218 0
-6 -12 219 0
6 -219 0
12 -219 0
-6 -13 220 0
6 -220 0
13 -220 0
-6 -14 221 0
6 -221 0
14 -221 0
-6 -15 222 0
6 -222 0
15 -222 0
-7 -11 223 0
7 -223 0
11 -223 0
-7 -12 224 0
7 -224 0
12 -224 0
-7 -13 225 0
7 -225 0
13 -225 0
-7 -14 226 0
7 -226 0
14 -226 0
-7 -15 227 0
7 -227 0
15 -227 0
-8 -11 228 0
8 -228 0
11 -228 0
-8 -12 229 0
8 -229 0
12 -229 0
-8 -13 230 0
8 -230 0
13 -230 0
-8 -14 231 0
8 -231 0
14 -231 0
-8 -15 232 0
8 -232 0
15 -232 0
-9 -11 233 0
9 -233 0
11 -233 0
-9 -12 234 0
9 -234 0
12 -234 0
-9 -13 235 0
9 -235 0
13 -235 0
-9 -14 236 0
9 -236 0
14 -236 0
-9 -15 237 0
9 -237 0
15 -237 0
-10 -11 238 0
10 -238 0
11 -238 0
-10 -12 239 0
10 -239 0
12 -239 0
-10 -13 240 0
10 -240 0
13 -240 0
-10 -14 241 0
10 -241 0
14 -241 0
-10 -15 242 0
10 -242 0
15 -242 0
-16 -30 243 0
16 -243 0
30 -243 0
-16 -31 244 0
16 -244 0
31 -244 0
-16 -32 245 0
16 -245 0
32 -245 0
-16 -33 246 0
16 -246 0
33 -246 0
-16 -34 247 0
16 -247 0
34 -247 0
-16 -35 248 0
16 -248 0
35 -248 0
-16 -36 249 0
16 -249 0
36 -249 0
-16 -37 250 0
16 -250 0
37 -250 0
-16 -38 251 0
16 -251 0
38 -251 0
-16 -39 252 0
16 -252 0
39 -252 0
-16 -40 253 0
16 -253 0
40 -253 0
-16 -41 254 0
16 -254 0
41 -254 0
-16 -42 255 0
16 -255 0
42 -255 0
-17 -30 256 0
17 -256 0
30 -256 0
-17 -31 257 0
17 -257 0
31 -257 0
-17 -32 258 0
17 -258 0
32 -258 0
-17 -33 259 0
17 -259 0
33 -259 0
-17 -34 260 0
17 -260 0
34 -260 0
-17 -35 261 0
17 -261 0
35 -261 0
-17 -36 262 0
17 -262 0
36 -262 0
-17 -37 263 0
17 -263 0
37 -263 0
-17 -38 264 0
17 -264 0
38 -264 0
-17 -39 265 0
17 -265 0
39 -265 0
-17 -40 266 0
17 -266 0
40 -266 0
-17 -41 267 0
17 -267 0
41 -267 0
-17 -42 268 0
17 -268 0
42 -268 0
-18 -30 269 0
18 -269 0
30 -269 0
-18 -31 270 0
18 -270 0
31 -270 0
-18 -32 271 0
18 -271 0
32 -271 0
-18 -33 272 0
18 -272 0
33 -272 0
-18 -34 273 0
18 -273 0
34 -273 0
-18 -35 274 0
18 -274 0
35 -274 0
-18 -36 275 0
18 -275 0
36 -275 0
-18 -37 276 0
18 -276 0
37 -276 0
-18 -38 277 0
18 -277 0
38 -277 0
-18 -39 278 0
18 -278 0
39 -278 0
-18 -40 279 0
18 -279 0
40 -279 0
-18 -41 280 0
18 -280 0
41 -280 0
-18 -42 281 0
18 -281 0
42 -281 0
-19 -30 282 0
19 -282 0
30 -282 0
-19 -31 283 0
19 -283 0
31 -283 0
-19 -32 284 0
19 -284 0
32 -284 0
-19 -33 285 0
19 -285 0
33 -285 0
-19 -34 286 0
19 -286 0
34 -286 0
-19 -35 287 0
19 -287 0
35 -287 0
-19 -36 288 0
19 -288 0
36 -288 0
-19 -37 289 0
19 -289 0
37 -289 0
-19 -38 290 0
19 -290 0
38 -290 0
-19 -39 291 0
19 -291 0
39 -291 0
-19 -40 292 0
19 -292 0
40 -292 0
-19 -41 293 0
19 -293 0
41 -293 0
-19 -42 294 0
19 -294 0
42 -294 0
-20 -30 295 0
20 -295 0
30 -295 0
-20 -31 296 0
20 -296 0
31 -296 0
-20 -32 297 0
20 -297 0
32 -297 0
-20 -33 298 0
20 -298 0
33 -298 0
-20 -34 299 0
20 -299 0
34 -299 0
-20 -35 300 0
20 -300 0
35 -300 0
-20 -36 301 0
20 -301 0
36 -301 0
-20 -37 302 0
20 -302 0
37 -302 0
-20 -38 303 0
20 -303 0
38 -303 0
-20 -39 304 0
20 -304 0
39 -304 0
-20 -40 305 0
20 -305 0
40 -305 0
-20 -41 306 0
20 -306 0
41 -306 0
-20 -42 307 0
20 -307 0
42 -307 0
-21 -30 308 0
21 -308 0
30 -308 0
-21 -31 309 0
21 -309 0
31 -309 0
-21 -32 310 0
21 -310 0
32 -310 0
-21 -33 311 0
21 -311 0
33 -311 0
-21 -34 312 0
21 -312 0
34 -312 0
-21 -35 313 0
21 -313 0
35 -313 0
-21 -36 314 0
21 -314 0
36 -314 0
-21 -37 315 0
21 -315 0
37 -315 0
-21 -38 316 0
21 -316 0
38 -316 0
-21 -39 317 0
21 -317 0
39 -317 0
-21 -40 318 0
21 -318 0
40 -318 0
-21 -41 319 0
21 -319 0
41 -319 0
-21 -42 320 0
21 -320 0
42 -320 0
-22 -30 321 0
22 -321 0
30 -321 0
-22 -31 322 0
22 -322 0
31 -322 0
-22 -32 323 0
22 -323 0
32 -323 0
-22 -33 324 0
22 -324 0
33 -324 0
-22 -34 325 0
22 -325 0
34 -325 0
-22 -35 326 0
22 -326 0
35 -326 0
-22 -36 327 0
22 -327 0
36 -327 0
-22 -37 328 0
22 -328 0
37 -328 0
-22 -38 329 0
22 -329 0
38 -329 0
-22 -39 330 0
22 -330 0
39 -330 0
-22 -40 331 0
22 -331 0
40 -331 0
-22 -41 332 0
22 -332 0
41 -332 0
-22 -42 333 0
22 -333 0
42 -333 0
-23 -30 334 0
23 -334 0
30 -334 0
-23 -31 335 0
23 -335 0
31 -335 0
-23 -32 336 0
23 -336 0
32 -336 0
-23 -33 337 0
23 -337 0
33 -337 0
-23 -34 338 0
23 -338 0
34 -338 0
-23 -35 339 0
23 -339 0
35 -339 0
-23 -36 340 0
23 -340 0
36 -340 0
-23 -37 341 0
23 -341 0
37 -341 0
-23 -38 342 0
23 -342 0
38 -342 0
-23 -39 343 0
23 -343 0
39 -343 0
-23 -40 344 0
23 -344 0
40 -344 0
-23 -41 345 0
23 -345 0
41 -345 0
-23 -42 346 0
23 -346 0
42 -346 0
-24 -30 347 0
24 -347 0
30 -347 0
-24 -31 348 0
24 -348 0
31 -348 0
-24 -32 349 0
24 -349 0
32 -349 0
-24 -33 350 0
24 -350 0
33 -350 0
-24 -34 351 0
24 -351 0
34 -351 0
-24 -35 352 0
24 -352 0
35 -352 0
-24 -36 353 0
24 -353 0
36 -353 0
-24 -37 354 0
24 -354 0
37 -354 0
-24 -38 355 0
24 -355 0
38 -355 0
-24 -39 356 0
24 -356 0
39 -356 0
-24 -40 357 0
24 -357 0
40 -357 0
-24 -41 358 0
24 -358 0
41 -358 0
-24 -42 359 0
24 -359 0
42 -359 0
-25 -30 360 0
25 -360 0
30 -360 0
-25 -31 361 0
25 -361 0
31 -361 0
-25 -32 362 0
25 -362 0
32 -362 0
-25 -33 363 0
25 -363 0
33 -363 0
-25 -34 364 0
25 -364 0
34 -364 0
-25 -35 365 0
25 -365 0
35 -365 0
-25 -36 366 0
25 -366 0
36 -366 0
-25 -37 367 0
25 -367 0
37 -367 0
-25 -38 368 0
25 -368 0
38 -368 0
-25 -39 369 0
25 -369 0
39 -369 0
-25 -40 370 0
25 -370 0
40 -370 0
-25 -41 371 0
25 -371 0
41 -371 0
-25 -42 372 0
25 -372 0
42 -372 0
-26 -30 373 0
26 -373 0
30 -373 0
-26 -31 374 0
26 -374 0
31 -374 0
-26 -32 375 0
26 -375 0
32 -375 0
-26 -33 376 0
26 -376 0
33 -376 0
-26 -34 377 0
26 -377 0
34 -377 0
-26 -35 378 0
26 -378 0
35 -378 0
-26 -36 379 0
26 -379 0
36 -379 0
-26 -37 380 0
26 -380 0
37 -380 0
-26 -38 381 0
26 -381 0
38 -381 0
-26 -39 382 0
26 -382 0
39 -382 0
-26 -40 383 0
26 -383 0
40 -383 0
-26 -41 384 0
26 -384 0
41 -384 0
-26 -42 385 0
26 -385 0
42 -385 0
-27 -30 386 0
27 -386 0
30 -386 0
-27 -31 387 0
27 -387 0
31 -387 0
-27 -32 388 0
27 -388 0
32 -388 0
-27 -33 389 0
27 -389 0
33 -389 0
-27 -34 390 0
27 -390 0
34 -390 0
-27 -35 391 0
27 -391 0
35 -391 0
-27 -36 392 0
27 -392 0
36 -392 0
-27 -37 393 0
27 -393 0
37 -393 0
-27 -38 394 0
27 -394 0
38 -394 0
-27 -39 395 0
27 -395 0
39 -395 0
-27 -40 396 0
27 -396 0
40 -396 0
-27 -41 397 0
27 -397 0
41 -397 0
-27 -42 398 0
27 -398 0
42 -398 0
-28 -30 399 0
28 -399 0
30 -399 0
-28 -31 400 0
28 -400 0
31 -400 0
-28 -32 401 0
28 -401 0
32 -401 0
-28 -33 402 0
28 -402 0
33 -402 0
-28 -34 403 0
28 -403 0
34 -403 0
-28 -35 404 0
28 -404 0
35 -404 0
-28 -36 405 0
28 -405 0
36 -405 0
-28 -37 406 0
28 -406 0
37 -406 0
-28 -38 407 0
28 -407 0
38 -407 0
-28 -39 408 0
28 -408 0
39 -408 0
-28 -40 409 0
28 -409 0
40 -409 0
-28 -41 410 0
28 -410 0
41 -410 0
-28 -42 411 0
28 -411 0
42 -411 0
-29 -30 412 0
29 -412 0
30 -412 0
-29 -31 413 0
29 -413 0
31 -413 0
-29 -32 414 0
29 -414 0
32 -414 0
-29 -33 415 0
29 -415 0
33 -415 0
-29 -34 416 0
29 -416 0
34 -416 0
-29 -35 417 0
29 -417 0
35 -417 0
-29 -36 418 0
29 -418 0
36 -418 0
-29 -37 419 0
29 -419 0
37 -419 0
-29 -38 420 0
29 -420 0
38 -420 0
-29 -39 421 0
29 -421 0
39 -421 0
-29 -40 422 0
29 -422 0
40 -422 0
-29 -41 423 0
29 -423 0
41 -423 0
-29 -42 424 0
29 -424 0
42 -424 0
-30 -31 425 0
30 -425 0
31 -425 0
-30 -32 426 0
30 -426 0
32 -426 0
-30 -33 427 0
30 -427 0
33 -427 0
-30 -34 428 0
30 -428 0
34 -428 0
-30 -35 429 0
30 -429 0
35 -429 0
-30 -36 430 0
30 -430 0
36 -430 0
-30 -37 431 0
30 -431 0
37 -431 0
-30 -38 432 0
30 -432 0
38 -432 0
-30 -39 433 0
30 -433 0
39 -433 0
-30 -40 434 0
30 -434 0
40 -434 0
-30 -41 435 0
30 -435 0
41 -435 0
-30 -42 436 0
30 -436 0
42 -436 0
-31 -32 437 0
31 -437 0
32 -437 0
-31 -33 438 0
31 -438 0
33 -438 0
-31 -34 439 0
31 -439 0
34 -439 0
-31 -35 440 0
31 -440 0
35 -440 0
-31 -36 441 0
31 -441 0
36 -441 0
-31 -37 442 0
31 -442 0
37 -442 0
-31 -38 443 0
31 -443 0
38 -443 0
-31 -39 444 0
31 -444 0
39 -444 0
-31 -40 445 0
31 -445 0
40 -445 0
-31 -41 446 0
31 -446 0
41 -446 0
-31 -42 447 0
31 -447 0
42 -447 0
-32 -33 448 0
32 -448 0
33 -448 0
-32 -34 449 0
32 -449 0
34 -449 0
-32 -35 450 0
32 -450 0
35 -450 0
-32 -36 451 0
32 -451 0
36 -451 0
-32 -37 452 0
32 -452 0
37 -452 0
-32 -38 453 0
32 -453 0
38 -453 0
-32 -39 454 0
32 -454 0
39 -454 0
-32 -40 455 0
32 -455 0
40 -455 0
-32 -41 456 0
32 -456 0
41 -456 0
-32 -42 457 0
32 -457 0
42 -457 0
-33 -34 458 0
33 -458 0
34 -458 0
-33 -35 459 0
33 -459 0
35 -459 0
-33 -36 460 0
33 -460 0
36 -460 0
-33 -37 461 0
33 -461 0
37 -461 0
-33 -38 462 0
33 -462 0
38 -462 0
-33 -39 463 0
33 -463 0
39 -463 0
-33 -40 464 0
33 -464 0
40 -464 0
-33 -41 465 0
33 -465 0
41 -465 0
-33 -42 466 0
33 -466 0
42 -466 0
-34 -35 467 0
34 -467 0
35 -467 0
-34 -36 468 0
34 -468 0
36 -468 0
-34 -37 469 0
34 -469 0
37 -469 0
-34 -38 470 0
34 -470 0
38 -470 0
-34 -39 471 0
34 -471 0
39 -471 0
-34 -40 472 0
34 -472 0
40 -472 0
-34 -41 473 0
34 -473 0
41 -473 0
-34 -42 474 0
34 -474 0
42 -474 0
-35 -36 475 0
35 -475 0
36 -475 0
-35 -37 476 0
35 -476 0
37 -476 0
-35 -38 477 0
35 -477 0
38 -477 0
-35 -39 478 0
35 -478 0
39 -478 0
-35 -40 479 0
35 -479 0
40 -479 0
-35 -41 480 0
35 -480 0
41 -480 0
-35 -42 481 0
35 -481 0
42 -481 0
-36 -37 482 0
36 -482 0
37 -482 0
-36 -38 483 0
36 -483 0
38 -483 0
-36 -39 484 0
36 -484 0
39 -484 0
-36 -40 485 0
36 -485 0
40 -485 0
-36 -41 486 0
36 -486 0
41 -486 0
-36 -42 487 0
36 -487 0
42 -487 0
-37 -38 488 0
37 -488 0
38 -488 0
-37 -39 489 0
37 -489 0
39 -489 0
-37 -40 490 0
37 -490 0
40 -490 0
-37 -41 491 0
37 -491 0
41 -491 0
-37 -42 492 0
37 -492 0
42 -492 0
-38 -39 493 0
38 -493 0
39 -493 0
-38 -40 494 0
38 -494 0
40 -494 0
-38 -41 495 0
38 -495 0
41 -495 0
-38 -42 496 0
38 -496 0
42 -496 0
-39 -40 497 0
39 -497 0
40 -497 0
-39 -41 498 0
39 -498 0
41 -498 0
-39 -42 499 0
39 -499 0
42 -499 0
-40 -41 500 0
40 -500 0
41 -500 0
-40 -42 501 0
40 -501 0
42 -501 0
-41 -42 502 0
41 -502 0
42 -502 0
x -1 6 11 16 0
x -2 7 12 17 0
x -3 8 13 18 0
x -4 9 14 19 0
x -5 10 15 20 0
x -43 73 218 21 0
x -49 74 78 108 219 223 22 0
x -55 75 84 109 113 143 220 224 228 23 0
x -61 76 90 110 119 144 148 178 221 225 229 233 24 0
x -67 77 96 111 125 145 154 179 183 213 222 226 230 234 238 25 0
x -102 112 131 146 160 180 189 214 227 231 235 239 26 0
x -137 147 166 181 195 215 232 236 240 27 0
x -172 182 201 216 237 241 28 0
x -207 217 242 29 0
x -44 30 0
x -45 50 79 31 0
x -46 51 56 80 85 114 32 0
x -47 52 57 62 81 86 91 115 120 149 33 0
x -48 53 58 63 68 82 87 92 97 116 121 126 150 155 184 34 0
x -54 59 64 69 83 88 93 98 103 117 122 127 132 151 156 161 185 190 35 0
x -60 65 70 89 94 99 104 118 123 128 133 138 152 157 162 167 186 191 196 36 0
x -66 71 95 100 105 124 129 134 139 153 158 163 168 173 187 192 197 202 37 0
x -72 101 106 130 135 140 159 164 169 174 188 193 198 203 208 38 0
x -107 136 141 165 170 175 194 199 204 209 39 0
x -142 171 176 200 205 210 40 0
x -177 206 211 41 0
x -212 42 0
x 16 308 385 396 397 407 408 418 419 30 474 481 486 487 491 492 494 495 496 499 40 500 0
x -243 244 268 280 281 292 293 294 304 305 306 307 308 309 26 27 397 398 28 408 409 29 419 420 425 31 481 487 491 492 38 495 496 497 499 501 42 0
x -245 21 309 310 22 321 398 409 410 420 421 30 426 31 32 487 492 495 496 498 40 501 41 0
x -243 244 245 246 256 257 281 293 294 305 306 307 310 311 321 322 385 396 397 407 408 410 411 418 419 421 422 30 426 427 31 32 33 474 481 486 487 491 494 495 498 40 500 502 0
x 243 246 247 17 258 268 280 281 292 293 294 304 305 306 307 311 312 322 323 23 334 26 27 397 398 28 408 409 411 29 419 420 422 423 30 427 428 437 33 34 481 487 491 492 38 495 497 500 501 41 42 0
x -245 246 247 248 256 257 258 259 269 270 294 306 307 312 313 323 324 334 335 27 398 28 409 410 29 420 421 423 424 425 427 428 429 31 438 34 35 487 492 495 496 39 498 499 40 0
x -243 244 245 247 248 249 256 259 260 271 281 293 294 305 306 307 21 313 314 22 324 325 23 335 336 24 347 410 411 421 422 424 426 428 429 430 438 439 32 35 36 492 496 498 499 501 502 42 0
x -247 248 249 250 258 259 260 261 269 270 271 272 282 283 307 314 315 325 326 336 337 347 348 411 422 423 426 427 428 429 430 431 439 440 32 448 36 37 496 499 500 41 502 42 0
x 244 245 246 247 248 249 250 251 256 257 258 260 261 262 18 269 272 273 284 294 306 307 21 308 315 316 326 327 337 338 24 348 349 25 360 27 28 29 423 424 427 428 429 430 431 432 437 439 440 441 32 449 37 38 39 499 501 41 42 0
x -249 250 251 252 260 261 262 263 271 272 273 274 282 283 284 285 295 296 308 309 316 317 327 328 338 339 349 350 360 361 28 29 424 30 427 428 430 431 432 433 31 438 440 441 442 32 449 450 33 38 39 40 501 42 0
x -245 246 247 248 250 251 252 253 257 258 259 260 261 262 263 264 269 270 271 273 274 275 282 285 286 297 307 309 310 317 318 321 328 329 23 339 340 24 350 351 25 361 362 26 373 428 429 431 432 433 434 438 439 440 441 442 443 32 450 451 458 39 40 502 42 0
x -251 252 253 254 262 263 264 265 273 274 275 276 284 285 286 287 295 296 297 298 310 311 318 319 321 322 329 330 340 341 351 352 362 363 373 374 428 429 432 433 434 435 439 440 441 442 443 444 32 448 450 451 452 459 40 41 42 0
x 246 247 248 249 252 253 254 255 258 259 260 261 263 264 265 266 270 271 272 273 274 275 276 277 19 282 283 284 286 287 288 295 298 299 21 311 312 319 320 22 322 323 330 331 23 334 341 342 352 353 25 363 364 26 374 375 27 386 28 29 30 429 430 433 434 435 436 439 440 442 443 444 445 32 449 451 452 453 33 459 460 34 40 41 42 0
x -253 254 255 264 265 266 267 275 276 277 278 286 287 288 289 297 298 299 300 312 313 320 323 324 331 332 334 335 342 343 353 354 364 365 375 376 386 387 29 429 430 434 435 436 440 441 443 444 445 446 449 450 451 452 453 454 460 461 467 35 41 42 0
x -247 248 249 250 254 255 259 260 261 262 265 266 267 268 271 272 273 274 276 277 278 279 283 284 285 286 287 288 289 290 295 296 297 299 300 301 313 314 324 325 332 333 335 336 343 344 347 354 355 25 365 366 26 376 377 27 387 388 28 399 430 431 435 436 31 440 441 444 445 446 447 450 451 452 453 454 455 33 458 460 461 462 34 468 36 0
x -255 266 267 268 277 278 279 280 288 289 290 291 299 300 301 302 314 315 325 326 333 336 337 344 345 347 348 355 356 366 367 377 378 388 389 399 400 430 431 436 441 442 445 446 447 450 451 453 454 455 456 459 461 462 463 34 468 469 35 36 37 0
x -248 249 250 251 260 261 262 263 267 268 272 273 274 275 278 279 280 281 284 285 286 287 289 290 291 292 20 296 297 298 299 300 301 302 303 315 316 22 326 327 23 337 338 345 346 24 348 349 356 357 25 360 367 368 26 378 379 27 389 390 28 400 401 412 431 432 441 442 446 447 32 451 452 454 455 456 457 459 460 461 462 463 464 469 470 35 475 36 37 38 41 0
x -268 279 280 281 290 291 292 293 301 302 303 304 316 317 327 328 338 339 346 349 350 357 358 360 361 368 369 379 380 390 391 401 402 412 413 431 432 442 443 447 451 452 455 456 457 460 461 462 463 464 465 467 469 470 471 35 476 38 39 42 0
x -249 250 251 252 261 262 263 264 273 274 275 276 280 281 285 286 287 288 291 292 293 294 297 298 299 300 302 303 304 305 317 318 328 329 339 340 350 351 358 359 361 362 369 370 373 380 381 27 391 392 28 402 403 29 413 414 432 433 442 443 452 453 456 457 33 460 461 463 464 465 466 468 470 471 472 476 477 36 37 39 40 0
x -281 292 293 294 303 304 305 306 318 319 329 330 340 341 351 352 359 362 363 370 371 373 374 381 382 392 393 403 404 414 415 432 433 443 444 452 453 457 461 462 464 465 466 468 469 470 471 472 473 477 478 36 482 40 41 0
x -250 251 252 253 262 263 264 265 274 275 276 277 286 287 288 289 293 294 298 299 300 301 304 305 306 307 319 320 330 331 23 341 342 24 352 353 25 363 364 371 372 26 374 375 382 383 386 393 394 28 404 405 29 415 416 433 434 443 444 453 454 461 462 465 466 34 469 470 471 472 473 474 35 475 477 478 479 483 38 41 0
x -294 305 306 307 320 331 332 342 343 353 354 364 365 372 375 376 383 384 386 387 394 395 405 406 416 417 433 434 444 445 453 454 462 463 466 469 470 472 473 474 476 478 479 480 36 483 484 37 42 0
x -251 252 253 254 263 264 265 266 275 276 277 278 287 288 289 290 299 300 301 302 306 307 332 333 343 344 354 355 365 366 376 377 384 385 387 388 395 396 399 406 407 29 417 418 434 435 444 445 454 455 462 463 470 471 473 474 35 476 477 478 479 480 481 484 485 488 39 0
x -307 333 344 345 355 356 366 367 377 378 385 388 389 396 397 399 400 407 408 418 419 434 435 445 446 454 455 463 464 470 471 474 477 478 479 480 481 482 484 485 486 37 489 0
x -252 253 254 255 264 265 266 267 276 277 278 279 288 289 290 291 300 301 302 303 345 346 24 356 357 25 367 368 26 378 379 27 389 390 397 398 400 401 408 409 412 419 420 435 436 445 446 455 456 463 464 471 472 477 478 480 481 483 485 486 487 37 489 490 40 0
x -346 357 358 368 369 379 380 390 391 398 401 402 409 410 412 413 420 421 435 436 446 447 455 456 464 465 471 472 478 479 481 483 484 485 486 487 490 491 38 493 0
x -253 254 255 265 266 267 268 277 278 279 280 289 290 291 292 301 302 303 304 358 359 369 370 380 381 391 392 402 403 410 411 413 414 421 422 436 446 447 456 457 464 465 472 473 478 479 484 485 486 487 37 488 490 491 492 38 494 39 41 0
x -359 370 371 381 382 392 393 403 404 411 414 415 422 423 436 447 456 457 465 466 472 473 479 480 484 485 487 489 491 492 38 494 495 39 0
x -254 255 266 267 268 278 279 280 281 290 291 292 293 302 303 304 305 25 371 372 26 382 383 27 393 394 28 404 405 415 416 423 424 447 457 465 466 473 474 479 480 485 486 37 489 490 491 492 38 495 496 39 497 40 42 0
x -372 383 384 394 395 405 406 416 417 424 457 466 473 474 480 481 485 486 490 491 492 493 495 496 39 498 0
x -255 267 268 279 280 281 291 292 293 294 303 304 305 306 384 385 395 396 406 407 417 418 466 474 480 481 486 487 490 491 494 496 498 499 40 41 0
