p cnf 1197 4145
-1 0
2 0
-2 -3 -53 0
2 3 -53 0
2 -3 53 0
-2 3 53 0
-2 -4 -54 0
2 4 -54 0
2 -4 54 0
-2 4 54 0
-2 -5 -55 0
2 5 -55 0
2 -5 55 0
-2 5 55 0
-2 -6 -56 0
2 6 -56 0
2 -6 56 0
-2 6 56 0
-2 -7 -57 0
2 7 -57 0
2 -7 57 0
-2 7 57 0
-2 -8 -58 0
2 8 -58 0
2 -8 58 0
-2 8 58 0
-54 -55 59 0
54 -59 0
55 -59 0
-56 -59 60 0
56 -60 0
59 -60 0
-57 -60 61 0
57 -61 0
60 -61 0
-58 -61 62 0
58 -62 0
61 -62 0
-53 -62 63 0
53 -63 0
62 -63 0
-2 -63 -64 0
2 63 -64 0
2 -63 64 0
-2 63 64 0
-7 -8 -65 0
7 8 -65 0
7 -8 65 0
-7 8 65 0
-4 -8 -66 0
4 8 -66 0
4 -8 66 0
-4 8 66 0
-5 -8 -67 0
5 8 -67 0
5 -8 67 0
-5 8 67 0
-3 -4 68 0
3 -68 0
4 -68 0
-3 -5 69 0
3 -69 0
5 -69 0
-3 -6 70 0
3 -70 0
6 -70 0
-3 -7 71 0
3 -71 0
7 -71 0
-3 -8 72 0
3 -72 0
8 -72 0
-66 -68 -73 0
66 68 -73 0
66 -68 73 0
-66 68 73 0
-7 -69 -74 0
7 69 -74 0
7 -69 74 0
-7 69 74 0
-67 -70 -75 0
67 70 -75 0
67 -70 75 0
-67 70 75 0
-65 -71 -76 0
65 71 -76 0
65 -71 76 0
-65 71 76 0
-6 -72 -77 0
6 72 -77 0
6 -72 77 0
-6 72 77 0
-53 -73 -78 0
53 73 -78 0
53 -73 78 0
-53 73 78 0
-2 -78 -79 0
2 78 -79 0
2 -78 79 0
-2 78 79 0
-2 -74 -80 0
2 74 -80 0
2 -74 80 0
-2 74 80 0
-2 -75 -81 0
2 75 -81 0
2 -75 81 0
-2 75 81 0
-2 -76 -82 0
2 76 -82 0
2 -76 82 0
-2 76 82 0
-2 -77 -83 0
2 77 -83 0
2 -77 83 0
-2 77 83 0
-79 -80 84 0
79 -84 0
80 -84 0
-81 -84 85 0
81 -85 0
84 -85 0
-82 -85 86 0
82 -86 0
85 -86 0
-83 -86 87 0
83 -87 0
86 -87 0
-2 -87 -88 0
2 87 -88 0
2 -87 88 0
-2 87 88 0
-2 -88 -89 0
2 88 -89 0
2 -88 89 0
-2 88 89 0
-2 -9 -90 0
2 9 -90 0
2 -9 90 0
-2 9 90 0
-2 -10 -91 0
2 10 -91 0
2 -10 91 0
-2 10 91 0
-2 -11 -92 0
2 11 -92 0
2 -11 92 0
-2 11 92 0
-2 -12 -93 0
2 12 -93 0
2 -12 93 0
-2 12 93 0
-2 -13 -94 0
2 13 -94 0
2 -13 94 0
-2 13 94 0
-2 -14 -95 0
2 14 -95 0
2 -14 95 0
-2 14 95 0
-91 -92 96 0
91 -96 0
92 -96 0
-93 -96 97 0
93 -97 0
96 -97 0
-94 -97 98 0
94 -98 0
97 -98 0
-95 -98 99 0
95 -99 0
98 -99 0
-90 -99 100 0
90 -100 0
99 -100 0
-2 -100 -101 0
2 100 -101 0
2 -100 101 0
-2 100 101 0
-13 -14 -102 0
13 14 -102 0
13 -14 102 0
-13 14 102 0
-10 -14 -103 0
10 14 -103 0
10 -14 103 0
-10 14 103 0
-11 -14 -104 0
11 14 -104 0
11 -14 104 0
-11 14 104 0
-9 -10 105 0
9 -105 0
10 -105 0
-9 -11 106 0
9 -106 0
11 -106 0
-9 -12 107 0
9 -107 0
12 -107 0
-9 -13 108 0
9 -108 0
13 -108 0
-9 -14 109 0
9 -109 0
14 -109 0
-106 -109 -110 0
106 109 -110 0
106 -109 110 0
-106 109 110 0
-103 -109 -111 0
103 109 -111 0
103 -109 111 0
-103 109 111 0
-13 -105 -112 0
13 105 -112 0
13 -105 112 0
-13 105 112 0
-104 -110 -113 0
104 110 -113 0
104 -110 113 0
-104 110 113 0
-102 -107 -114 0
102 107 -114 0
102 -107 114 0
-102 107 114 0
-12 -108 -115 0
12 108 -115 0
12 -108 115 0
-12 108 115 0
-2 -111 -116 0
2 111 -116 0
2 -111 116 0
-2 111 116 0
-9 -114 -117 0
9 114 -117 0
9 -114 117 0
-9 114 117 0
-2 -116 -118 0
2 116 -118 0
2 -116 118 0
-2 116 118 0
-2 -112 -119 0
2 112 -119 0
2 -112 119 0
-2 112 119 0
-2 -113 -120 0
2 113 -120 0
2 -113 120 0
-2 113 120 0
-2 -117 -121 0
2 117 -121 0
2 -117 121 0
-2 117 121 0
-2 -115 -122 0
2 115 -122 0
2 -115 122 0
-2 115 122 0
-118 -119 123 0
118 -123 0
119 -123 0
-120 -123 124 0
120 -124 0
123 -124 0
-121 -124 125 0
121 -125 0
124 -125 0
-122 -125 126 0
122 -126 0
125 -126 0
-2 -126 -127 0
2 126 -127 0
2 -126 127 0
-2 126 127 0
-2 -127 -128 0
2 127 -128 0
2 -127 128 0
-2 127 128 0
-2 -22 -129 0
2 22 -129 0
2 -22 129 0
-2 22 129 0
-2 -23 -130 0
2 23 -130 0
2 -23 130 0
-2 23 130 0
-2 -24 -131 0
2 24 -131 0
2 -24 131 0
-2 24 131 0
-2 -25 -132 0
2 25 -132 0
2 -25 132 0
-2 25 132 0
-2 -26 -133 0
2 26 -133 0
2 -26 133 0
-2 26 133 0
-129 -130 134 0
129 -134 0
130 -134 0
-131 -134 135 0
131 -135 0
134 -135 0
-132 -135 136 0
132 -136 0
135 -136 0
-133 -136 137 0
133 -137 0
136 -137 0
-2 -27 -138 0
2 27 -138 0
2 -27 138 0
-2 27 138 0
-2 -28 -139 0
2 28 -139 0
2 -28 139 0
-2 28 139 0
-2 -29 -140 0
2 29 -140 0
2 -29 140 0
-2 29 140 0
-2 -30 -141 0
2 30 -141 0
2 -30 141 0
-2 30 141 0
-2 -31 -142 0
2 31 -142 0
2 -31 142 0
-2 31 142 0
-138 -139 143 0
138 -143 0
139 -143 0
-140 -143 144 0
140 -144 0
143 -144 0
-141 -144 145 0
141 -145 0
144 -145 0
-142 -145 146 0
142 -146 0
145 -146 0
-137 -146 147 0
137 -147 0
146 -147 0
-2 -21 -148 0
2 21 -148 0
2 -21 148 0
-2 21 148 0
-2 -148 -149 0
2 148 -149 0
2 -148 149 0
-2 148 149 0
-2 -147 -150 0
2 147 -150 0
2 -147 150 0
-2 147 150 0
-149 -150 151 0
149 -151 0
150 -151 0
-2 -151 -152 0
2 151 -152 0
2 -151 152 0
-2 151 152 0
-30 -31 -153 0
30 31 -153 0
30 -31 153 0
-30 31 153 0
-27 -31 -154 0
27 31 -154 0
27 -31 154 0
-27 31 154 0
-28 -31 -155 0
28 31 -155 0
28 -31 155 0
-28 31 155 0
-22 -27 156 0
22 -156 0
27 -156 0
-22 -28 157 0
22 -157 0
28 -157 0
-22 -29 158 0
22 -158 0
29 -158 0
-22 -30 159 0
22 -159 0
30 -159 0
-22 -31 160 0
22 -160 0
31 -160 0
-23 -27 161 0
23 -161 0
27 -161 0
-157 -161 -162 0
157 161 -162 0
157 -161 162 0
-157 161 162 0
-23 -28 163 0
23 -163 0
28 -163 0
-158 -163 -164 0
158 163 -164 0
158 -163 164 0
-158 163 164 0
-23 -29 165 0
23 -165 0
29 -165 0
-159 -165 -166 0
159 165 -166 0
159 -165 166 0
-159 165 166 0
-23 -30 167 0
23 -167 0
30 -167 0
-160 -167 -168 0
160 167 -168 0
160 -167 168 0
-160 167 168 0
-23 -31 169 0
23 -169 0
31 -169 0
-24 -27 170 0
24 -170 0
27 -170 0
-164 -170 -171 0
164 170 -171 0
164 -170 171 0
-164 170 171 0
-24 -28 172 0
24 -172 0
28 -172 0
-166 -172 -173 0
166 172 -173 0
166 -172 173 0
-166 172 173 0
-24 -29 174 0
24 -174 0
29 -174 0
-168 -174 -175 0
168 174 -175 0
168 -174 175 0
-168 174 175 0
-24 -30 176 0
24 -176 0
30 -176 0
-169 -176 -177 0
169 176 -177 0
169 -176 177 0
-169 176 177 0
-24 -31 178 0
24 -178 0
31 -178 0
-25 -27 179 0
25 -179 0
27 -179 0
-173 -179 -180 0
173 179 -180 0
173 -179 180 0
-173 179 180 0
-25 -28 181 0
25 -181 0
28 -181 0
-175 -181 -182 0
175 181 -182 0
175 -181 182 0
-175 181 182 0
-25 -29 183 0
25 -183 0
29 -183 0
-177 -183 -184 0
177 183 -184 0
177 -183 184 0
-177 183 184 0
-25 -30 185 0
25 -185 0
30 -185 0
-178 -185 -186 0
178 185 -186 0
178 -185 186 0
-178 185 186 0
-25 -31 187 0
25 -187 0
31 -187 0
-26 -27 188 0
26 -188 0
27 -188 0
-182 -188 -189 0
182 188 -189 0
182 -188 189 0
-182 188 189 0
-26 -28 190 0
26 -190 0
28 -190 0
-184 -190 -191 0
184 190 -191 0
184 -190 191 0
-184 190 191 0
-26 -29 192 0
26 -192 0
29 -192 0
-186 -192 -193 0
186 192 -193 0
186 -192 193 0
-186 192 193 0
-26 -30 194 0
26 -194 0
30 -194 0
-187 -194 -195 0
187 194 -195 0
187 -194 195 0
-187 194 195 0
-26 -31 196 0
26 -196 0
31 -196 0
-180 -196 -197 0
180 196 -197 0
180 -196 197 0
-180 196 197 0
-191 -196 -198 0
191 196 -198 0
191 -196 198 0
-191 196 198 0
-171 -195 -199 0
171 195 -199 0
171 -195 199 0
-171 195 199 0
-189 -195 -200 0
189 195 -200 0
189 -195 200 0
-189 195 200 0
-162 -193 -201 0
162 193 -201 0
162 -193 201 0
-162 193 201 0
-193 -197 -202 0
193 197 -202 0
193 -197 202 0
-193 197 202 0
-156 -198 -203 0
156 198 -203 0
156 -198 203 0
-156 198 203 0
-198 -199 -204 0
198 199 -204 0
198 -199 204 0
-198 199 204 0
-154 -203 -205 0
154 203 -205 0
154 -203 205 0
-154 203 205 0
-30 -201 -206 0
30 201 -206 0
30 -201 206 0
-30 201 206 0
-155 -204 -207 0
155 204 -207 0
155 -204 207 0
-155 204 207 0
-153 -202 -208 0
153 202 -208 0
153 -202 208 0
-153 202 208 0
-29 -200 -209 0
29 200 -209 0
29 -200 209 0
-29 200 209 0
-25 -26 -210 0
25 26 -210 0
25 -26 210 0
-25 26 210 0
-22 -26 -211 0
22 26 -211 0
22 -26 211 0
-22 26 211 0
-23 -26 -212 0
23 26 -212 0
23 -26 212 0
-23 26 212 0
-22 -211 213 0
22 -213 0
211 -213 0
-23 -211 214 0
23 -214 0
211 -214 0
-24 -211 215 0
24 -215 0
211 -215 0
-25 -211 216 0
25 -216 0
211 -216 0
-26 -211 217 0
26 -217 0
211 -217 0
-22 -25 218 0
22 -218 0
25 -218 0
-214 -218 -219 0
214 218 -219 0
214 -218 219 0
-214 218 219 0
-23 -25 220 0
23 -220 0
25 -220 0
-215 -220 -221 0
215 220 -221 0
215 -220 221 0
-215 220 221 0
-24 -25 222 0
24 -222 0
25 -222 0
-216 -222 -223 0
216 222 -223 0
216 -222 223 0
-216 222 223 0
-25 -217 -224 0
25 217 -224 0
25 -217 224 0
-25 217 224 0
-25 -26 225 0
25 -225 0
26 -225 0
-22 -212 226 0
22 -226 0
212 -226 0
-221 -226 -227 0
221 226 -227 0
221 -226 227 0
-221 226 227 0
-23 -212 228 0
23 -228 0
212 -228 0
-223 -228 -229 0
223 228 -229 0
223 -228 229 0
-223 228 229 0
-24 -212 230 0
24 -230 0
212 -230 0
-224 -230 -231 0
224 230 -231 0
224 -230 231 0
-224 230 231 0
-25 -212 232 0
25 -232 0
212 -232 0
-225 -232 -233 0
225 232 -233 0
225 -232 233 0
-225 232 233 0
-26 -212 234 0
26 -234 0
212 -234 0
-22 -210 235 0
22 -235 0
210 -235 0
-229 -235 -236 0
229 235 -236 0
229 -235 236 0
-229 235 236 0
-23 -210 237 0
23 -237 0
210 -237 0
-231 -237 -238 0
231 237 -238 0
231 -237 238 0
-231 237 238 0
-24 -210 239 0
24 -239 0
210 -239 0
-233 -239 -240 0
233 239 -240 0
233 -239 240 0
-233 239 240 0
-25 -210 241 0
25 -241 0
210 -241 0
-234 -241 -242 0
234 241 -242 0
234 -241 242 0
-234 241 242 0
-26 -210 243 0
26 -243 0
210 -243 0
-22 -24 244 0
22 -244 0
24 -244 0
-238 -244 -245 0
238 244 -245 0
238 -244 245 0
-238 244 245 0
-23 -24 246 0
23 -246 0
24 -246 0
-240 -246 -247 0
240 246 -247 0
240 -246 247 0
-240 246 247 0
-24 -242 -248 0
24 242 -248 0
24 -242 248 0
-24 242 248 0
-222 -243 -249 0
222 243 -249 0
222 -243 249 0
-222 243 249 0
-24 -26 250 0
24 -250 0
26 -250 0
-236 -250 -251 0
236 250 -251 0
236 -250 251 0
-236 250 251 0
-247 -250 -252 0
247 250 -252 0
247 -250 252 0
-247 250 252 0
-227 -249 -253 0
227 249 -253 0
227 -249 253 0
-227 249 253 0
-245 -249 -254 0
245 249 -254 0
245 -249 254 0
-245 249 254 0
-219 -248 -255 0
219 248 -255 0
219 -248 255 0
-219 248 255 0
-248 -251 -256 0
248 251 -256 0
248 -251 256 0
-248 251 256 0
-213 -252 -257 0
213 252 -257 0
213 -252 257 0
-213 252 257 0
-252 -253 -258 0
252 253 -258 0
252 -253 258 0
-252 253 258 0
-2 -257 -259 0
2 257 -259 0
2 -257 259 0
-2 257 259 0
-205 -259 -260 0
205 259 -260 0
205 -259 260 0
-205 259 260 0
-206 -255 -261 0
206 255 -261 0
206 -255 261 0
-206 255 261 0
-207 -258 -262 0
207 258 -262 0
207 -258 262 0
-207 258 262 0
-208 -256 -263 0
208 256 -263 0
208 -256 263 0
-208 256 263 0
-209 -254 -264 0
209 254 -264 0
209 -254 264 0
-209 254 264 0
-2 -260 -265 0
2 260 -265 0
2 -260 265 0
-2 260 265 0
-2 -261 -266 0
2 261 -266 0
2 -261 266 0
-2 261 266 0
-2 -262 -267 0
2 262 -267 0
2 -262 267 0
-2 262 267 0
-2 -263 -268 0
2 263 -268 0
2 -263 268 0
-2 263 268 0
-2 -264 -269 0
2 264 -269 0
2 -264 269 0
-2 264 269 0
-265 -266 270 0
265 -270 0
266 -270 0
-267 -270 271 0
267 -271 0
270 -271 0
-268 -271 272 0
268 -272 0
271 -272 0
-269 -272 273 0
269 -273 0
272 -273 0
-2 -149 -274 0
2 149 -274 0
2 -149 274 0
-2 149 274 0
-2 -273 -275 0
2 273 -275 0
2 -273 275 0
-2 273 275 0
-274 -275 276 0
274 -276 0
275 -276 0
-2 -276 -277 0
2 276 -277 0
2 -276 277 0
-2 276 277 0
-152 -277 278 0
152 -278 0
277 -278 0
-89 -128 279 0
89 -279 0
128 -279 0
-278 -279 280 0
278 -280 0
279 -280 0
-53 -90 281 0
53 -281 0
90 -281 0
-4 -10 -282 0
4 10 -282 0
4 -10 282 0
-4 10 282 0
-5 -11 -283 0
5 11 -283 0
5 -11 283 0
-5 11 283 0
-6 -12 -284 0
6 12 -284 0
6 -12 284 0
-6 12 284 0
-7 -13 -285 0
7 13 -285 0
7 -13 285 0
-7 13 285 0
-8 -14 -286 0
8 14 -286 0
8 -14 286 0
-8 14 286 0
-2 -282 -287 0
2 282 -287 0
2 -282 287 0
-2 282 287 0
-2 -283 -288 0
2 283 -288 0
2 -283 288 0
-2 283 288 0
-2 -284 -289 0
2 284 -289 0
2 -284 289 0
-2 284 289 0
-2 -285 -290 0
2 285 -290 0
2 -285 290 0
-2 285 290 0
-2 -286 -291 0
2 286 -291 0
2 -286 291 0
-2 286 291 0
-287 -288 292 0
287 -292 0
288 -292 0
-289 -292 293 0
289 -293 0
292 -293 0
-290 -293 294 0
290 -294 0
293 -294 0
-291 -294 295 0
291 -295 0
294 -295 0
-3 -282 -296 0
3 282 -296 0
3 -282 296 0
-3 282 296 0
-2 -296 -297 0
2 296 -297 0
2 -296 297 0
-2 296 297 0
-288 -297 298 0
288 -298 0
297 -298 0
-289 -298 299 0
289 -299 0
298 -299 0
-290 -299 300 0
290 -300 0
299 -300 0
-291 -300 301 0
291 -301 0
300 -301 0
-2 -53 -302 0
2 53 -302 0
2 -53 302 0
-2 53 302 0
-281 -301 303 0
281 -303 0
301 -303 0
-2 -301 -304 0
2 301 -304 0
2 -301 304 0
-2 301 304 0
-281 -304 305 0
281 -305 0
304 -305 0
-295 -305 306 0
295 -306 0
305 -306 0
-302 -306 307 0
302 -307 0
306 -307 0
-2 -281 -308 0
2 281 -308 0
2 -281 308 0
-2 281 308 0
-2 -303 -309 0
2 303 -309 0
2 -303 309 0
-2 303 309 0
-2 -309 -310 0
2 309 -310 0
2 -309 310 0
-2 309 310 0
-2 -310 -311 0
2 310 -311 0
2 -310 311 0
-2 310 311 0
-2 -307 -312 0
2 307 -312 0
2 -307 312 0
-2 307 312 0
-311 -312 313 0
311 -313 0
312 -313 0
-2 -313 -314 0
2 313 -314 0
2 -313 314 0
-2 313 314 0
-2 -314 -315 0
2 314 -315 0
2 -314 315 0
-2 314 315 0
-2 -308 -316 0
2 308 -316 0
2 -308 316 0
-2 308 316 0
-315 -316 317 0
315 -317 0
316 -317 0
-2 -317 -318 0
2 317 -318 0
2 -317 318 0
-2 317 318 0
-9 -23 -319 0
9 23 -319 0
9 -23 319 0
-9 23 319 0
-2 -319 -320 0
2 319 -320 0
2 -319 320 0
-2 319 320 0
-129 -320 321 0
129 -321 0
320 -321 0
-131 -321 322 0
131 -322 0
321 -322 0
-132 -322 323 0
132 -323 0
322 -323 0
-133 -323 324 0
133 -324 0
323 -324 0
-10 -27 -325 0
10 27 -325 0
10 -27 325 0
-10 27 325 0
-11 -28 -326 0
11 28 -326 0
11 -28 326 0
-11 28 326 0
-12 -29 -327 0
12 29 -327 0
12 -29 327 0
-12 29 327 0
-13 -30 -328 0
13 30 -328 0
13 -30 328 0
-13 30 328 0
-14 -31 -329 0
14 31 -329 0
14 -31 329 0
-14 31 329 0
-2 -325 -330 0
2 325 -330 0
2 -325 330 0
-2 325 330 0
-2 -326 -331 0
2 326 -331 0
2 -326 331 0
-2 326 331 0
-2 -327 -332 0
2 327 -332 0
2 -327 332 0
-2 327 332 0
-2 -328 -333 0
2 328 -333 0
2 -328 333 0
-2 328 333 0
-2 -329 -334 0
2 329 -334 0
2 -329 334 0
-2 329 334 0
-330 -331 335 0
330 -335 0
331 -335 0
-332 -335 336 0
332 -336 0
335 -336 0
-333 -336 337 0
333 -337 0
336 -337 0
-334 -337 338 0
334 -338 0
337 -338 0
-148 -324 339 0
148 -339 0
324 -339 0
-338 -339 340 0
338 -340 0
339 -340 0
-2 -340 -341 0
2 340 -341 0
2 -340 341 0
-2 340 341 0
-3 -22 -342 0
3 22 -342 0
3 -22 342 0
-3 22 342 0
-2 -342 -343 0
2 342 -343 0
2 -342 343 0
-2 342 343 0
-130 -343 344 0
130 -344 0
343 -344 0
-131 -344 345 0
131 -345 0
344 -345 0
-132 -345 346 0
132 -346 0
345 -346 0
-133 -346 347 0
133 -347 0
346 -347 0
-4 -27 -348 0
4 27 -348 0
4 -27 348 0
-4 27 348 0
-5 -28 -349 0
5 28 -349 0
5 -28 349 0
-5 28 349 0
-6 -29 -350 0
6 29 -350 0
6 -29 350 0
-6 29 350 0
-7 -30 -351 0
7 30 -351 0
7 -30 351 0
-7 30 351 0
-8 -31 -352 0
8 31 -352 0
8 -31 352 0
-8 31 352 0
-2 -348 -353 0
2 348 -353 0
2 -348 353 0
-2 348 353 0
-2 -349 -354 0
2 349 -354 0
2 -349 354 0
-2 349 354 0
-2 -350 -355 0
2 350 -355 0
2 -350 355 0
-2 350 355 0
-2 -351 -356 0
2 351 -356 0
2 -351 356 0
-2 351 356 0
-2 -352 -357 0
2 352 -357 0
2 -352 357 0
-2 352 357 0
-353 -354 358 0
353 -358 0
354 -358 0
-355 -358 359 0
355 -359 0
358 -359 0
-356 -359 360 0
356 -360 0
359 -360 0
-357 -360 361 0
357 -361 0
360 -361 0
-148 -347 362 0
148 -362 0
347 -362 0
-361 -362 363 0
361 -363 0
362 -363 0
-2 -363 -364 0
2 363 -364 0
2 -363 364 0
-2 363 364 0
-21 -147 365 0
21 -365 0
147 -365 0
-2 -365 -366 0
2 365 -366 0
2 -365 366 0
-2 365 366 0
-310 -366 367 0
310 -367 0
366 -367 0
-2 -367 -368 0
2 367 -368 0
2 -367 368 0
-2 367 368 0
-3 -43 369 0
3 -369 0
43 -369 0
-3 -44 370 0
3 -370 0
44 -370 0
-3 -45 371 0
3 -371 0
45 -371 0
-3 -46 372 0
3 -372 0
46 -372 0
-3 -47 373 0
3 -373 0
47 -373 0
-3 -4 -374 0
3 4 -374 0
3 -4 374 0
-3 4 374 0
-369 -374 -375 0
369 374 -375 0
369 -374 375 0
-369 374 375 0
-5 -370 -376 0
5 370 -376 0
5 -370 376 0
-5 370 376 0
-6 -371 -377 0
6 371 -377 0
6 -371 377 0
-6 371 377 0
-7 -372 -378 0
7 372 -378 0
7 -372 378 0
-7 372 378 0
-8 -373 -379 0
8 373 -379 0
8 -373 379 0
-8 373 379 0
-2 -375 -380 0
2 375 -380 0
2 -375 380 0
-2 375 380 0
-2 -376 -381 0
2 376 -381 0
2 -376 381 0
-2 376 381 0
-2 -377 -382 0
2 377 -382 0
2 -377 382 0
-2 377 382 0
-2 -378 -383 0
2 378 -383 0
2 -378 383 0
-2 378 383 0
-2 -379 -384 0
2 379 -384 0
2 -379 384 0
-2 379 384 0
-380 -381 385 0
380 -385 0
381 -385 0
-382 -385 386 0
382 -386 0
385 -386 0
-383 -386 387 0
383 -387 0
386 -387 0
-384 -387 388 0
384 -388 0
387 -388 0
-46 -47 -389 0
46 47 -389 0
46 -47 389 0
-46 47 389 0
-43 -47 -390 0
43 47 -390 0
43 -47 390 0
-43 47 390 0
-44 -47 -391 0
44 47 -391 0
44 -47 391 0
-44 47 391 0
-43 -390 -392 0
43 390 -392 0
43 -390 392 0
-43 390 392 0
-44 -46 -393 0
44 46 -393 0
44 -46 393 0
-44 46 393 0
-45 -391 -394 0
45 391 -394 0
45 -391 394 0
-45 391 394 0
-46 -389 -395 0
46 389 -395 0
46 -389 395 0
-46 389 395 0
-45 -47 -396 0
45 47 -396 0
45 -47 396 0
-45 47 396 0
-2 -43 -397 0
2 43 -397 0
2 -43 397 0
-2 43 397 0
-22 -397 398 0
22 -398 0
397 -398 0
-23 -397 399 0
23 -399 0
397 -399 0
-24 -397 400 0
24 -400 0
397 -400 0
-25 -397 401 0
25 -401 0
397 -401 0
-26 -397 402 0
26 -402 0
397 -402 0
-22 -44 403 0
22 -403 0
44 -403 0
-399 -403 -404 0
399 403 -404 0
399 -403 404 0
-399 403 404 0
-23 -44 405 0
23 -405 0
44 -405 0
-400 -405 -406 0
400 405 -406 0
400 -405 406 0
-400 405 406 0
-24 -44 407 0
24 -407 0
44 -407 0
-401 -407 -408 0
401 407 -408 0
401 -407 408 0
-401 407 408 0
-25 -44 409 0
25 -409 0
44 -409 0
-402 -409 -410 0
402 409 -410 0
402 -409 410 0
-402 409 410 0
-26 -44 411 0
26 -411 0
44 -411 0
-22 -45 412 0
22 -412 0
45 -412 0
-406 -412 -413 0
406 412 -413 0
406 -412 413 0
-406 412 413 0
-23 -45 414 0
23 -414 0
45 -414 0
-408 -414 -415 0
408 414 -415 0
408 -414 415 0
-408 414 415 0
-24 -45 416 0
24 -416 0
45 -416 0
-410 -416 -417 0
410 416 -417 0
410 -416 417 0
-410 416 417 0
-25 -45 418 0
25 -418 0
45 -418 0
-411 -418 -419 0
411 418 -419 0
411 -418 419 0
-411 418 419 0
-26 -45 420 0
26 -420 0
45 -420 0
-22 -46 421 0
22 -421 0
46 -421 0
-415 -421 -422 0
415 421 -422 0
415 -421 422 0
-415 421 422 0
-23 -46 423 0
23 -423 0
46 -423 0
-417 -423 -424 0
417 423 -424 0
417 -423 424 0
-417 423 424 0
-24 -46 425 0
24 -425 0
46 -425 0
-419 -425 -426 0
419 425 -426 0
419 -425 426 0
-419 425 426 0
-25 -46 427 0
25 -427 0
46 -427 0
-420 -427 -428 0
420 427 -428 0
420 -427 428 0
-420 427 428 0
-26 -46 429 0
26 -429 0
46 -429 0
-22 -47 430 0
22 -430 0
47 -430 0
-424 -430 -431 0
424 430 -431 0
424 -430 431 0
-424 430 431 0
-23 -47 432 0
23 -432 0
47 -432 0
-426 -432 -433 0
426 432 -433 0
426 -432 433 0
-426 432 433 0
-24 -47 434 0
24 -434 0
47 -434 0
-428 -434 -435 0
428 434 -435 0
428 -434 435 0
-428 434 435 0
-25 -47 436 0
25 -436 0
47 -436 0
-429 -436 -437 0
429 436 -437 0
429 -436 437 0
-429 436 437 0
-26 -47 438 0
26 -438 0
47 -438 0
-422 -438 -439 0
422 438 -439 0
422 -438 439 0
-422 438 439 0
-433 -438 -440 0
433 438 -440 0
433 -438 440 0
-433 438 440 0
-413 -437 -441 0
413 437 -441 0
413 -437 441 0
-413 437 441 0
-431 -437 -442 0
431 437 -442 0
431 -437 442 0
-431 437 442 0
-404 -435 -443 0
404 435 -443 0
404 -435 443 0
-404 435 443 0
-435 -439 -444 0
435 439 -444 0
435 -439 444 0
-435 439 444 0
-398 -440 -445 0
398 440 -445 0
398 -440 445 0
-398 440 445 0
-440 -441 -446 0
440 441 -446 0
440 -441 446 0
-440 441 446 0
-3 -445 -447 0
3 445 -447 0
3 -445 447 0
-3 445 447 0
-22 -392 -448 0
22 392 -448 0
22 -392 448 0
-22 392 448 0
-23 -393 -449 0
23 393 -449 0
23 -393 449 0
-23 393 449 0
-24 -394 -450 0
24 394 -450 0
24 -394 450 0
-24 394 450 0
-25 -395 -451 0
25 395 -451 0
25 -395 451 0
-25 395 451 0
-26 -396 -452 0
26 396 -452 0
26 -396 452 0
-26 396 452 0
-2 -448 -453 0
2 448 -453 0
2 -448 453 0
-2 448 453 0
-2 -449 -454 0
2 449 -454 0
2 -449 454 0
-2 449 454 0
-2 -450 -455 0
2 450 -455 0
2 -450 455 0
-2 450 455 0
-2 -451 -456 0
2 451 -456 0
2 -451 456 0
-2 451 456 0
-2 -452 -457 0
2 452 -457 0
2 -452 457 0
-2 452 457 0
-453 -454 458 0
453 -458 0
454 -458 0
-455 -458 459 0
455 -459 0
458 -459 0
-456 -459 460 0
456 -460 0
459 -460 0
-457 -460 461 0
457 -461 0
460 -461 0
-27 -447 -462 0
27 447 -462 0
27 -447 462 0
-27 447 462 0
-28 -443 -463 0
28 443 -463 0
28 -443 463 0
-28 443 463 0
-29 -446 -464 0
29 446 -464 0
29 -446 464 0
-29 446 464 0
-30 -444 -465 0
30 444 -465 0
30 -444 465 0
-30 444 465 0
-31 -442 -466 0
31 442 -466 0
31 -442 466 0
-31 442 466 0
-2 -462 -467 0
2 462 -467 0
2 -462 467 0
-2 462 467 0
-2 -463 -468 0
2 463 -468 0
2 -463 468 0
-2 463 468 0
-2 -464 -469 0
2 464 -469 0
2 -464 469 0
-2 464 469 0
-2 -465 -470 0
2 465 -470 0
2 -465 470 0
-2 465 470 0
-2 -466 -471 0
2 466 -471 0
2 -466 471 0
-2 466 471 0
-467 -468 472 0
467 -472 0
468 -472 0
-469 -472 473 0
469 -473 0
472 -473 0
-470 -473 474 0
470 -474 0
473 -474 0
-471 -474 475 0
471 -475 0
474 -475 0
-148 -388 476 0
148 -476 0
388 -476 0
-461 -476 477 0
461 -477 0
476 -477 0
-475 -477 478 0
475 -478 0
477 -478 0
-2 -312 -479 0
2 312 -479 0
2 -312 479 0
-2 312 479 0
-2 -478 -480 0
2 478 -480 0
2 -478 480 0
-2 478 480 0
-479 -480 481 0
479 -481 0
480 -481 0
-2 -481 -482 0
2 481 -482 0
2 -481 482 0
-2 481 482 0
-9 -43 483 0
9 -483 0
43 -483 0
-370 -483 -484 0
370 483 -484 0
370 -483 484 0
-370 483 484 0
-9 -44 485 0
9 -485 0
44 -485 0
-371 -485 -486 0
371 485 -486 0
371 -485 486 0
-371 485 486 0
-9 -45 487 0
9 -487 0
45 -487 0
-372 -487 -488 0
372 487 -488 0
372 -487 488 0
-372 487 488 0
-9 -46 489 0
9 -489 0
46 -489 0
-373 -489 -490 0
373 489 -490 0
373 -489 490 0
-373 489 490 0
-9 -47 491 0
9 -491 0
47 -491 0
-369 -491 -492 0
369 491 -492 0
369 -491 492 0
-369 491 492 0
-486 -491 -493 0
486 491 -493 0
486 -491 493 0
-486 491 493 0
-282 -492 -494 0
282 492 -494 0
282 -492 494 0
-282 492 494 0
-283 -484 -495 0
283 484 -495 0
283 -484 495 0
-283 484 495 0
-284 -493 -496 0
284 493 -496 0
284 -493 496 0
-284 493 496 0
-285 -488 -497 0
285 488 -497 0
285 -488 497 0
-285 488 497 0
-286 -490 -498 0
286 490 -498 0
286 -490 498 0
-286 490 498 0
-2 -494 -499 0
2 494 -499 0
2 -494 499 0
-2 494 499 0
-2 -495 -500 0
2 495 -500 0
2 -495 500 0
-2 495 500 0
-2 -496 -501 0
2 496 -501 0
2 -496 501 0
-2 496 501 0
-2 -497 -502 0
2 497 -502 0
2 -497 502 0
-2 497 502 0
-2 -498 -503 0
2 498 -503 0
2 -498 503 0
-2 498 503 0
-499 -500 504 0
499 -504 0
500 -504 0
-501 -504 505 0
501 -505 0
504 -505 0
-502 -505 506 0
502 -506 0
505 -506 0
-503 -506 507 0
503 -507 0
506 -507 0
-3 -392 -508 0
3 392 -508 0
3 -392 508 0
-3 392 508 0
-9 -393 -509 0
9 393 -509 0
9 -393 509 0
-9 393 509 0
-43 -342 510 0
43 -510 0
342 -510 0
-23 -43 511 0
23 -511 0
43 -511 0
-24 -43 512 0
24 -512 0
43 -512 0
-25 -43 513 0
25 -513 0
43 -513 0
-26 -43 514 0
26 -514 0
43 -514 0
-44 -342 515 0
44 -515 0
342 -515 0
-511 -515 -516 0
511 515 -516 0
511 -515 516 0
-511 515 516 0
-405 -512 -517 0
405 512 -517 0
405 -512 517 0
-405 512 517 0
-407 -513 -518 0
407 513 -518 0
407 -513 518 0
-407 513 518 0
-409 -514 -519 0
409 514 -519 0
409 -514 519 0
-409 514 519 0
-45 -342 520 0
45 -520 0
342 -520 0
-517 -520 -521 0
517 520 -521 0
517 -520 521 0
-517 520 521 0
-414 -518 -522 0
414 518 -522 0
414 -518 522 0
-414 518 522 0
-416 -519 -523 0
416 519 -523 0
416 -519 523 0
-416 519 523 0
-46 -342 524 0
46 -524 0
342 -524 0
-522 -524 -525 0
522 524 -525 0
522 -524 525 0
-522 524 525 0
-423 -523 -526 0
423 523 -526 0
423 -523 526 0
-423 523 526 0
-47 -342 527 0
47 -527 0
342 -527 0
-526 -527 -528 0
526 527 -528 0
526 -527 528 0
-526 527 528 0
-438 -525 -529 0
438 525 -529 0
438 -525 529 0
-438 525 529 0
-437 -521 -530 0
437 521 -530 0
437 -521 530 0
-437 521 530 0
-437 -528 -531 0
437 528 -531 0
437 -528 531 0
-437 528 531 0
-435 -516 -532 0
435 516 -532 0
435 -516 532 0
-435 516 532 0
-435 -529 -533 0
435 529 -533 0
435 -529 533 0
-435 529 533 0
-440 -510 -534 0
440 510 -534 0
440 -510 534 0
-440 510 534 0
-440 -530 -535 0
440 530 -535 0
440 -530 535 0
-440 530 535 0
-22 -534 -536 0
22 534 -536 0
22 -534 536 0
-22 534 536 0
-23 -532 -537 0
23 532 -537 0
23 -532 537 0
-23 532 537 0
-24 -535 -538 0
24 535 -538 0
24 -535 538 0
-24 535 538 0
-25 -533 -539 0
25 533 -539 0
25 -533 539 0
-25 533 539 0
-26 -531 -540 0
26 531 -540 0
26 -531 540 0
-26 531 540 0
-4 -536 -541 0
4 536 -541 0
4 -536 541 0
-4 536 541 0
-5 -537 -542 0
5 537 -542 0
5 -537 542 0
-5 537 542 0
-6 -538 -543 0
6 538 -543 0
6 -538 543 0
-6 538 543 0
-7 -539 -544 0
7 539 -544 0
7 -539 544 0
-7 539 544 0
-8 -540 -545 0
8 540 -545 0
8 -540 545 0
-8 540 545 0
-22 -508 -546 0
22 508 -546 0
22 -508 546 0
-22 508 546 0
-23 -509 -547 0
23 509 -547 0
23 -509 547 0
-23 509 547 0
-2 -546 -548 0
2 546 -548 0
2 -546 548 0
-2 546 548 0
-2 -547 -549 0
2 547 -549 0
2 -547 549 0
-2 547 549 0
-548 -549 550 0
548 -550 0
549 -550 0
-455 -550 551 0
455 -551 0
550 -551 0
-456 -551 552 0
456 -552 0
551 -552 0
-457 -552 553 0
457 -553 0
552 -553 0
-27 -541 -554 0
27 541 -554 0
27 -541 554 0
-27 541 554 0
-28 -542 -555 0
28 542 -555 0
28 -542 555 0
-28 542 555 0
-29 -543 -556 0
29 543 -556 0
29 -543 556 0
-29 543 556 0
-30 -544 -557 0
30 544 -557 0
30 -544 557 0
-30 544 557 0
-31 -545 -558 0
31 545 -558 0
31 -545 558 0
-31 545 558 0
-2 -554 -559 0
2 554 -559 0
2 -554 559 0
-2 554 559 0
-2 -555 -560 0
2 555 -560 0
2 -555 560 0
-2 555 560 0
-2 -556 -561 0
2 556 -561 0
2 -556 561 0
-2 556 561 0
-2 -557 -562 0
2 557 -562 0
2 -557 562 0
-2 557 562 0
-2 -558 -563 0
2 558 -563 0
2 -558 563 0
-2 558 563 0
-559 -560 564 0
559 -564 0
560 -564 0
-561 -564 565 0
561 -565 0
564 -565 0
-562 -565 566 0
562 -566 0
565 -566 0
-563 -566 567 0
563 -567 0
566 -567 0
-148 -507 568 0
148 -568 0
507 -568 0
-553 -568 569 0
553 -569 0
568 -569 0
-567 -569 570 0
567 -570 0
569 -570 0
-2 -316 -571 0
2 316 -571 0
2 -316 571 0
-2 316 571 0
-2 -570 -572 0
2 570 -572 0
2 -570 572 0
-2 570 572 0
-571 -572 573 0
571 -573 0
572 -573 0
-2 -573 -574 0
2 573 -574 0
2 -573 574 0
-2 573 574 0
-280 -318 575 0
280 -575 0
318 -575 0
-368 -575 576 0
368 -576 0
575 -576 0
-482 -576 577 0
482 -577 0
576 -577 0
-574 -577 578 0
574 -578 0
577 -578 0
-2 -15 -579 0
2 15 -579 0
2 -15 579 0
-2 15 579 0
-2 -16 -580 0
2 16 -580 0
2 -16 580 0
-2 16 580 0
-2 -17 -581 0
2 17 -581 0
2 -17 581 0
-2 17 581 0
-2 -18 -582 0
2 18 -582 0
2 -18 582 0
-2 18 582 0
-2 -19 -583 0
2 19 -583 0
2 -19 583 0
-2 19 583 0
-2 -20 -584 0
2 20 -584 0
2 -20 584 0
-2 20 584 0
-580 -581 585 0
580 -585 0
581 -585 0
-582 -585 586 0
582 -586 0
585 -586 0
-583 -586 587 0
583 -587 0
586 -587 0
-584 -587 588 0
584 -588 0
587 -588 0
-579 -588 589 0
579 -589 0
588 -589 0
-2 -589 -590 0
2 589 -590 0
2 -589 590 0
-2 589 590 0
-19 -20 -591 0
19 20 -591 0
19 -20 591 0
-19 20 591 0
-16 -20 -592 0
16 20 -592 0
16 -20 592 0
-16 20 592 0
-17 -20 -593 0
17 20 -593 0
17 -20 593 0
-17 20 593 0
-15 -16 594 0
15 -594 0
16 -594 0
-15 -17 595 0
15 -595 0
17 -595 0
-15 -18 596 0
15 -596 0
18 -596 0
-15 -19 597 0
15 -597 0
19 -597 0
-15 -20 598 0
15 -598 0
20 -598 0
-595 -598 -599 0
595 598 -599 0
595 -598 599 0
-595 598 599 0
-594 -597 -600 0
594 597 -600 0
594 -597 600 0
-594 597 600 0
-592 -597 -601 0
592 597 -601 0
592 -597 601 0
-592 597 601 0
-19 -598 -602 0
19 598 -602 0
19 -598 602 0
-19 598 602 0
-593 -600 -603 0
593 600 -603 0
593 -600 603 0
-593 600 603 0
-591 -599 -604 0
591 599 -604 0
591 -599 604 0
-591 599 604 0
-18 -596 -605 0
18 596 -605 0
18 -596 605 0
-18 596 605 0
-2 -601 -606 0
2 601 -606 0
2 -601 606 0
-2 601 606 0
-15 -602 -607 0
15 602 -607 0
15 -602 607 0
-15 602 607 0
-15 -604 -608 0
15 604 -608 0
15 -604 608 0
-15 604 608 0
-2 -606 -609 0
2 606 -609 0
2 -606 609 0
-2 606 609 0
-2 -607 -610 0
2 607 -610 0
2 -607 610 0
-2 607 610 0
-2 -603 -611 0
2 603 -611 0
2 -603 611 0
-2 603 611 0
-2 -608 -612 0
2 608 -612 0
2 -608 612 0
-2 608 612 0
-2 -605 -613 0
2 605 -613 0
2 -605 613 0
-2 605 613 0
-609 -610 614 0
609 -614 0
610 -614 0
-611 -614 615 0
611 -615 0
614 -615 0
-612 -615 616 0
612 -616 0
615 -616 0
-613 -616 617 0
613 -617 0
616 -617 0
-2 -617 -618 0
2 617 -618 0
2 -617 618 0
-2 617 618 0
-2 -618 -619 0
2 618 -619 0
2 -618 619 0
-2 618 619 0
-2 -33 -620 0
2 33 -620 0
2 -33 620 0
-2 33 620 0
-2 -34 -621 0
2 34 -621 0
2 -34 621 0
-2 34 621 0
-2 -35 -622 0
2 35 -622 0
2 -35 622 0
-2 35 622 0
-2 -36 -623 0
2 36 -623 0
2 -36 623 0
-2 36 623 0
-2 -37 -624 0
2 37 -624 0
2 -37 624 0
-2 37 624 0
-620 -621 625 0
620 -625 0
621 -625 0
-622 -625 626 0
622 -626 0
625 -626 0
-623 -626 627 0
623 -627 0
626 -627 0
-624 -627 628 0
624 -628 0
627 -628 0
-2 -38 -629 0
2 38 -629 0
2 -38 629 0
-2 38 629 0
-2 -39 -630 0
2 39 -630 0
2 -39 630 0
-2 39 630 0
-2 -40 -631 0
2 40 -631 0
2 -40 631 0
-2 40 631 0
-2 -41 -632 0
2 41 -632 0
2 -41 632 0
-2 41 632 0
-2 -42 -633 0
2 42 -633 0
2 -42 633 0
-2 42 633 0
-629 -630 634 0
629 -634 0
630 -634 0
-631 -634 635 0
631 -635 0
634 -635 0
-632 -635 636 0
632 -636 0
635 -636 0
-633 -636 637 0
633 -637 0
636 -637 0
-628 -637 638 0
628 -638 0
637 -638 0
-2 -32 -639 0
2 32 -639 0
2 -32 639 0
-2 32 639 0
-2 -639 -640 0
2 639 -640 0
2 -639 640 0
-2 639 640 0
-2 -638 -641 0
2 638 -641 0
2 -638 641 0
-2 638 641 0
-640 -641 642 0
640 -642 0
641 -642 0
-2 -642 -643 0
2 642 -643 0
2 -642 643 0
-2 642 643 0
-41 -42 -644 0
41 42 -644 0
41 -42 644 0
-41 42 644 0
-38 -42 -645 0
38 42 -645 0
38 -42 645 0
-38 42 645 0
-39 -42 -646 0
39 42 -646 0
39 -42 646 0
-39 42 646 0
-33 -38 647 0
33 -647 0
38 -647 0
-33 -39 648 0
33 -648 0
39 -648 0
-33 -40 649 0
33 -649 0
40 -649 0
-33 -41 650 0
33 -650 0
41 -650 0
-33 -42 651 0
33 -651 0
42 -651 0
-34 -38 652 0
34 -652 0
38 -652 0
-648 -652 -653 0
648 652 -653 0
648 -652 653 0
-648 652 653 0
-34 -39 654 0
34 -654 0
39 -654 0
-649 -654 -655 0
649 654 -655 0
649 -654 655 0
-649 654 655 0
-34 -40 656 0
34 -656 0
40 -656 0
-650 -656 -657 0
650 656 -657 0
650 -656 657 0
-650 656 657 0
-34 -41 658 0
34 -658 0
41 -658 0
-651 -658 -659 0
651 658 -659 0
651 -658 659 0
-651 658 659 0
-34 -42 660 0
34 -660 0
42 -660 0
-35 -38 661 0
35 -661 0
38 -661 0
-655 -661 -662 0
655 661 -662 0
655 -661 662 0
-655 661 662 0
-35 -39 663 0
35 -663 0
39 -663 0
-657 -663 -664 0
657 663 -664 0
657 -663 664 0
-657 663 664 0
-35 -40 665 0
35 -665 0
40 -665 0
-659 -665 -666 0
659 665 -666 0
659 -665 666 0
-659 665 666 0
-35 -41 667 0
35 -667 0
41 -667 0
-660 -667 -668 0
660 667 -668 0
660 -667 668 0
-660 667 668 0
-35 -42 669 0
35 -669 0
42 -669 0
-36 -38 670 0
36 -670 0
38 -670 0
-664 -670 -671 0
664 670 -671 0
664 -670 671 0
-664 670 671 0
-36 -39 672 0
36 -672 0
39 -672 0
-666 -672 -673 0
666 672 -673 0
666 -672 673 0
-666 672 673 0
-36 -40 674 0
36 -674 0
40 -674 0
-668 -674 -675 0
668 674 -675 0
668 -674 675 0
-668 674 675 0
-36 -41 676 0
36 -676 0
41 -676 0
-669 -676 -677 0
669 676 -677 0
669 -676 677 0
-669 676 677 0
-36 -42 678 0
36 -678 0
42 -678 0
-37 -38 679 0
37 -679 0
38 -679 0
-673 -679 -680 0
673 679 -680 0
673 -679 680 0
-673 679 680 0
-37 -39 681 0
37 -681 0
39 -681 0
-675 -681 -682 0
675 681 -682 0
675 -681 682 0
-675 681 682 0
-37 -40 683 0
37 -683 0
40 -683 0
-677 -683 -684 0
677 683 -684 0
677 -683 684 0
-677 683 684 0
-37 -41 685 0
37 -685 0
41 -685 0
-678 -685 -686 0
678 685 -686 0
678 -685 686 0
-678 685 686 0
-37 -42 687 0
37 -687 0
42 -687 0
-671 -687 -688 0
671 687 -688 0
671 -687 688 0
-671 687 688 0
-682 -687 -689 0
682 687 -689 0
682 -687 689 0
-682 687 689 0
-662 -686 -690 0
662 686 -690 0
662 -686 690 0
-662 686 690 0
-680 -686 -691 0
680 686 -691 0
680 -686 691 0
-680 686 691 0
-653 -684 -692 0
653 684 -692 0
653 -684 692 0
-653 684 692 0
-684 -688 -693 0
684 688 -693 0
684 -688 693 0
-684 688 693 0
-647 -689 -694 0
647 689 -694 0
647 -689 694 0
-647 689 694 0
-689 -690 -695 0
689 690 -695 0
689 -690 695 0
-689 690 695 0
-645 -694 -696 0
645 694 -696 0
645 -694 696 0
-645 694 696 0
-41 -692 -697 0
41 692 -697 0
41 -692 697 0
-41 692 697 0
-646 -695 -698 0
646 695 -698 0
646 -695 698 0
-646 695 698 0
-644 -693 -699 0
644 693 -699 0
644 -693 699 0
-644 693 699 0
-40 -691 -700 0
40 691 -700 0
40 -691 700 0
-40 691 700 0
-36 -37 -701 0
36 37 -701 0
36 -37 701 0
-36 37 701 0
-33 -37 -702 0
33 37 -702 0
33 -37 702 0
-33 37 702 0
-34 -37 -703 0
34 37 -703 0
34 -37 703 0
-34 37 703 0
-33 -702 704 0
33 -704 0
702 -704 0
-34 -702 705 0
34 -705 0
702 -705 0
-35 -702 706 0
35 -706 0
702 -706 0
-36 -702 707 0
36 -707 0
702 -707 0
-37 -702 708 0
37 -708 0
702 -708 0
-33 -36 709 0
33 -709 0
36 -709 0
-705 -709 -710 0
705 709 -710 0
705 -709 710 0
-705 709 710 0
-34 -36 711 0
34 -711 0
36 -711 0
-706 -711 -712 0
706 711 -712 0
706 -711 712 0
-706 711 712 0
-35 -36 713 0
35 -713 0
36 -713 0
-707 -713 -714 0
707 713 -714 0
707 -713 714 0
-707 713 714 0
-36 -708 -715 0
36 708 -715 0
36 -708 715 0
-36 708 715 0
-36 -37 716 0
36 -716 0
37 -716 0
-33 -703 717 0
33 -717 0
703 -717 0
-712 -717 -718 0
712 717 -718 0
712 -717 718 0
-712 717 718 0
-34 -703 719 0
34 -719 0
703 -719 0
-714 -719 -720 0
714 719 -720 0
714 -719 720 0
-714 719 720 0
-35 -703 721 0
35 -721 0
703 -721 0
-715 -721 -722 0
715 721 -722 0
715 -721 722 0
-715 721 722 0
-36 -703 723 0
36 -723 0
703 -723 0
-716 -723 -724 0
716 723 -724 0
716 -723 724 0
-716 723 724 0
-37 -703 725 0
37 -725 0
703 -725 0
-33 -701 726 0
33 -726 0
701 -726 0
-720 -726 -727 0
720 726 -727 0
720 -726 727 0
-720 726 727 0
-34 -701 728 0
34 -728 0
701 -728 0
-722 -728 -729 0
722 728 -729 0
722 -728 729 0
-722 728 729 0
-35 -701 730 0
35 -730 0
701 -730 0
-724 -730 -731 0
724 730 -731 0
724 -730 731 0
-724 730 731 0
-36 -701 732 0
36 -732 0
701 -732 0
-725 -732 -733 0
725 732 -733 0
725 -732 733 0
-725 732 733 0
-37 -701 734 0
37 -734 0
701 -734 0
-33 -35 735 0
33 -735 0
35 -735 0
-729 -735 -736 0
729 735 -736 0
729 -735 736 0
-729 735 736 0
-34 -35 737 0
34 -737 0
35 -737 0
-731 -737 -738 0
731 737 -738 0
731 -737 738 0
-731 737 738 0
-35 -733 -739 0
35 733 -739 0
35 -733 739 0
-35 733 739 0
-713 -734 -740 0
713 734 -740 0
713 -734 740 0
-713 734 740 0
-35 -37 741 0
35 -741 0
37 -741 0
-727 -741 -742 0
727 741 -742 0
727 -741 742 0
-727 741 742 0
-738 -741 -743 0
738 741 -743 0
738 -741 743 0
-738 741 743 0
-718 -740 -744 0
718 740 -744 0
718 -740 744 0
-718 740 744 0
-736 -740 -745 0
736 740 -745 0
736 -740 745 0
-736 740 745 0
-710 -739 -746 0
710 739 -746 0
710 -739 746 0
-710 739 746 0
-739 -742 -747 0
739 742 -747 0
739 -742 747 0
-739 742 747 0
-704 -743 -748 0
704 743 -748 0
704 -743 748 0
-704 743 748 0
-743 -744 -749 0
743 744 -749 0
743 -744 749 0
-743 744 749 0
-2 -748 -750 0
2 748 -750 0
2 -748 750 0
-2 748 750 0
-696 -750 -751 0
696 750 -751 0
696 -750 751 0
-696 750 751 0
-697 -746 -752 0
697 746 -752 0
697 -746 752 0
-697 746 752 0
-698 -749 -753 0
698 749 -753 0
698 -749 753 0
-698 749 753 0
-699 -747 -754 0
699 747 -754 0
699 -747 754 0
-699 747 754 0
-700 -745 -755 0
700 745 -755 0
700 -745 755 0
-700 745 755 0
-2 -751 -756 0
2 751 -756 0
2 -751 756 0
-2 751 756 0
-2 -752 -757 0
2 752 -757 0
2 -752 757 0
-2 752 757 0
-2 -753 -758 0
2 753 -758 0
2 -753 758 0
-2 753 758 0
-2 -754 -759 0
2 754 -759 0
2 -754 759 0
-2 754 759 0
-2 -755 -760 0
2 755 -760 0
2 -755 760 0
-2 755 760 0
-756 -757 761 0
756 -761 0
757 -761 0
-758 -761 762 0
758 -762 0
761 -762 0
-759 -762 763 0
759 -763 0
762 -763 0
-760 -763 764 0
760 -764 0
763 -764 0
-2 -640 -765 0
2 640 -765 0
2 -640 765 0
-2 640 765 0
-2 -764 -766 0
2 764 -766 0
2 -764 766 0
-2 764 766 0
-765 -766 767 0
765 -767 0
766 -767 0
-2 -767 -768 0
2 767 -768 0
2 -767 768 0
-2 767 768 0
-643 -768 769 0
643 -769 0
768 -769 0
-278 -619 770 0
278 -770 0
619 -770 0
-769 -770 771 0
769 -771 0
770 -771 0
-15 -24 -772 0
15 24 -772 0
15 -24 772 0
-15 24 772 0
-2 -772 -773 0
2 772 -773 0
2 -772 773 0
-2 772 773 0
-134 -773 774 0
134 -774 0
773 -774 0
-132 -774 775 0
132 -775 0
774 -775 0
-133 -775 776 0
133 -776 0
775 -776 0
-16 -27 -777 0
16 27 -777 0
16 -27 777 0
-16 27 777 0
-17 -28 -778 0
17 28 -778 0
17 -28 778 0
-17 28 778 0
-18 -29 -779 0
18 29 -779 0
18 -29 779 0
-18 29 779 0
-19 -30 -780 0
19 30 -780 0
19 -30 780 0
-19 30 780 0
-20 -31 -781 0
20 31 -781 0
20 -31 781 0
-20 31 781 0
-2 -777 -782 0
2 777 -782 0
2 -777 782 0
-2 777 782 0
-2 -778 -783 0
2 778 -783 0
2 -778 783 0
-2 778 783 0
-2 -779 -784 0
2 779 -784 0
2 -779 784 0
-2 779 784 0
-2 -780 -785 0
2 780 -785 0
2 -780 785 0
-2 780 785 0
-2 -781 -786 0
2 781 -786 0
2 -781 786 0
-2 781 786 0
-782 -783 787 0
782 -787 0
783 -787 0
-784 -787 788 0
784 -788 0
787 -788 0
-785 -788 789 0
785 -789 0
788 -789 0
-786 -789 790 0
786 -790 0
789 -790 0
-22 -777 -791 0
22 777 -791 0
22 -777 791 0
-22 777 791 0
-23 -778 -792 0
23 778 -792 0
23 -778 792 0
-23 778 792 0
-24 -779 -793 0
24 779 -793 0
24 -779 793 0
-24 779 793 0
-25 -780 -794 0
25 780 -794 0
25 -780 794 0
-25 780 794 0
-26 -781 -795 0
26 781 -795 0
26 -781 795 0
-26 781 795 0
-2 -791 -796 0
2 791 -796 0
2 -791 796 0
-2 791 796 0
-2 -792 -797 0
2 792 -797 0
2 -792 797 0
-2 792 797 0
-2 -793 -798 0
2 793 -798 0
2 -793 798 0
-2 793 798 0
-2 -794 -799 0
2 794 -799 0
2 -794 799 0
-2 794 799 0
-2 -795 -800 0
2 795 -800 0
2 -795 800 0
-2 795 800 0
-796 -797 801 0
796 -801 0
797 -801 0
-798 -801 802 0
798 -802 0
801 -802 0
-799 -802 803 0
799 -803 0
802 -803 0
-800 -803 804 0
800 -804 0
803 -804 0
-2 -137 -805 0
2 137 -805 0
2 -137 805 0
-2 137 805 0
-148 -776 806 0
148 -806 0
776 -806 0
-804 -806 807 0
804 -807 0
806 -807 0
-2 -804 -808 0
2 804 -808 0
2 -804 808 0
-2 804 808 0
-806 -808 809 0
806 -809 0
808 -809 0
-790 -809 810 0
790 -810 0
809 -810 0
-805 -810 811 0
805 -811 0
810 -811 0
-2 -776 -812 0
2 776 -812 0
2 -776 812 0
-2 776 812 0
-148 -812 813 0
148 -813 0
812 -813 0
-2 -274 -814 0
2 274 -814 0
2 -274 814 0
-2 274 814 0
-2 -814 -815 0
2 814 -815 0
2 -814 815 0
-2 814 815 0
-2 -807 -816 0
2 807 -816 0
2 -807 816 0
-2 807 816 0
-815 -816 817 0
815 -817 0
816 -817 0
-2 -817 -818 0
2 817 -818 0
2 -817 818 0
-2 817 818 0
-2 -818 -819 0
2 818 -819 0
2 -818 819 0
-2 818 819 0
-2 -811 -820 0
2 811 -820 0
2 -811 820 0
-2 811 820 0
-819 -820 821 0
819 -821 0
820 -821 0
-2 -821 -822 0
2 821 -822 0
2 -821 822 0
-2 821 822 0
-2 -822 -823 0
2 822 -823 0
2 -822 823 0
-2 822 823 0
-2 -813 -824 0
2 813 -824 0
2 -813 824 0
-2 813 824 0
-823 -824 825 0
823 -825 0
824 -825 0
-2 -825 -826 0
2 825 -826 0
2 -825 826 0
-2 825 826 0
-15 -35 -827 0
15 35 -827 0
15 -35 827 0
-15 35 827 0
-2 -827 -828 0
2 827 -828 0
2 -827 828 0
-2 827 828 0
-625 -828 829 0
625 -829 0
828 -829 0
-623 -829 830 0
623 -830 0
829 -830 0
-624 -830 831 0
624 -831 0
830 -831 0
-16 -38 -832 0
16 38 -832 0
16 -38 832 0
-16 38 832 0
-17 -39 -833 0
17 39 -833 0
17 -39 833 0
-17 39 833 0
-18 -40 -834 0
18 40 -834 0
18 -40 834 0
-18 40 834 0
-19 -41 -835 0
19 41 -835 0
19 -41 835 0
-19 41 835 0
-20 -42 -836 0
20 42 -836 0
20 -42 836 0
-20 42 836 0
-2 -832 -837 0
2 832 -837 0
2 -832 837 0
-2 832 837 0
-2 -833 -838 0
2 833 -838 0
2 -833 838 0
-2 833 838 0
-2 -834 -839 0
2 834 -839 0
2 -834 839 0
-2 834 839 0
-2 -835 -840 0
2 835 -840 0
2 -835 840 0
-2 835 840 0
-2 -836 -841 0
2 836 -841 0
2 -836 841 0
-2 836 841 0
-837 -838 842 0
837 -842 0
838 -842 0
-839 -842 843 0
839 -843 0
842 -843 0
-840 -843 844 0
840 -844 0
843 -844 0
-841 -844 845 0
841 -845 0
844 -845 0
-639 -831 846 0
639 -846 0
831 -846 0
-845 -846 847 0
845 -847 0
846 -847 0
-2 -847 -848 0
2 847 -848 0
2 -847 848 0
-2 847 848 0
-149 -848 849 0
149 -849 0
848 -849 0
-2 -849 -850 0
2 849 -850 0
2 -849 850 0
-2 849 850 0
-21 -32 -851 0
21 32 -851 0
21 -32 851 0
-21 32 851 0
-2 -851 -852 0
2 851 -852 0
2 -851 852 0
-2 851 852 0
-22 -33 -853 0
22 33 -853 0
22 -33 853 0
-22 33 853 0
-23 -34 -854 0
23 34 -854 0
23 -34 854 0
-23 34 854 0
-24 -35 -855 0
24 35 -855 0
24 -35 855 0
-24 35 855 0
-25 -36 -856 0
25 36 -856 0
25 -36 856 0
-25 36 856 0
-26 -37 -857 0
26 37 -857 0
26 -37 857 0
-26 37 857 0
-2 -853 -858 0
2 853 -858 0
2 -853 858 0
-2 853 858 0
-2 -854 -859 0
2 854 -859 0
2 -854 859 0
-2 854 859 0
-2 -855 -860 0
2 855 -860 0
2 -855 860 0
-2 855 860 0
-2 -856 -861 0
2 856 -861 0
2 -856 861 0
-2 856 861 0
-2 -857 -862 0
2 857 -862 0
2 -857 862 0
-2 857 862 0
-858 -859 863 0
858 -863 0
859 -863 0
-860 -863 864 0
860 -864 0
863 -864 0
-861 -864 865 0
861 -865 0
864 -865 0
-862 -865 866 0
862 -866 0
865 -866 0
-27 -38 -867 0
27 38 -867 0
27 -38 867 0
-27 38 867 0
-28 -39 -868 0
28 39 -868 0
28 -39 868 0
-28 39 868 0
-29 -40 -869 0
29 40 -869 0
29 -40 869 0
-29 40 869 0
-30 -41 -870 0
30 41 -870 0
30 -41 870 0
-30 41 870 0
-31 -42 -871 0
31 42 -871 0
31 -42 871 0
-31 42 871 0
-2 -867 -872 0
2 867 -872 0
2 -867 872 0
-2 867 872 0
-2 -868 -873 0
2 868 -873 0
2 -868 873 0
-2 868 873 0
-2 -869 -874 0
2 869 -874 0
2 -869 874 0
-2 869 874 0
-2 -870 -875 0
2 870 -875 0
2 -870 875 0
-2 870 875 0
-2 -871 -876 0
2 871 -876 0
2 -871 876 0
-2 871 876 0
-872 -873 877 0
872 -877 0
873 -877 0
-874 -877 878 0
874 -878 0
877 -878 0
-875 -878 879 0
875 -879 0
878 -879 0
-876 -879 880 0
876 -880 0
879 -880 0
-852 -866 881 0
852 -881 0
866 -881 0
-880 -881 882 0
880 -882 0
881 -882 0
-2 -882 -883 0
2 882 -883 0
2 -882 883 0
-2 882 883 0
-32 -638 884 0
32 -884 0
638 -884 0
-2 -816 -885 0
2 816 -885 0
2 -816 885 0
-2 816 885 0
-2 -884 -886 0
2 884 -886 0
2 -884 886 0
-2 884 886 0
-885 -886 887 0
885 -887 0
886 -887 0
-2 -887 -888 0
2 887 -888 0
2 -887 888 0
-2 887 888 0
-22 -48 889 0
22 -889 0
48 -889 0
-23 -48 890 0
23 -890 0
48 -890 0
-24 -48 891 0
24 -891 0
48 -891 0
-25 -48 892 0
25 -892 0
48 -892 0
-26 -48 893 0
26 -893 0
48 -893 0
-22 -49 894 0
22 -894 0
49 -894 0
-890 -894 -895 0
890 894 -895 0
890 -894 895 0
-890 894 895 0
-23 -49 896 0
23 -896 0
49 -896 0
-891 -896 -897 0
891 896 -897 0
891 -896 897 0
-891 896 897 0
-24 -49 898 0
24 -898 0
49 -898 0
-892 -898 -899 0
892 898 -899 0
892 -898 899 0
-892 898 899 0
-25 -49 900 0
25 -900 0
49 -900 0
-893 -900 -901 0
893 900 -901 0
893 -900 901 0
-893 900 901 0
-26 -49 902 0
26 -902 0
49 -902 0
-22 -50 903 0
22 -903 0
50 -903 0
-897 -903 -904 0
897 903 -904 0
897 -903 904 0
-897 903 904 0
-23 -50 905 0
23 -905 0
50 -905 0
-899 -905 -906 0
899 905 -906 0
899 -905 906 0
-899 905 906 0
-24 -50 907 0
24 -907 0
50 -907 0
-901 -907 -908 0
901 907 -908 0
901 -907 908 0
-901 907 908 0
-25 -50 909 0
25 -909 0
50 -909 0
-902 -909 -910 0
902 909 -910 0
902 -909 910 0
-902 909 910 0
-26 -50 911 0
26 -911 0
50 -911 0
-22 -51 912 0
22 -912 0
51 -912 0
-906 -912 -913 0
906 912 -913 0
906 -912 913 0
-906 912 913 0
-23 -51 914 0
23 -914 0
51 -914 0
-908 -914 -915 0
908 914 -915 0
908 -914 915 0
-908 914 915 0
-24 -51 916 0
24 -916 0
51 -916 0
-910 -916 -917 0
910 916 -917 0
910 -916 917 0
-910 916 917 0
-25 -51 918 0
25 -918 0
51 -918 0
-911 -918 -919 0
911 918 -919 0
911 -918 919 0
-911 918 919 0
-26 -51 920 0
26 -920 0
51 -920 0
-22 -52 921 0
22 -921 0
52 -921 0
-915 -921 -922 0
915 921 -922 0
915 -921 922 0
-915 921 922 0
-23 -52 923 0
23 -923 0
52 -923 0
-917 -923 -924 0
917 923 -924 0
917 -923 924 0
-917 923 924 0
-24 -52 925 0
24 -925 0
52 -925 0
-919 -925 -926 0
919 925 -926 0
919 -925 926 0
-919 925 926 0
-25 -52 927 0
25 -927 0
52 -927 0
-920 -927 -928 0
920 927 -928 0
920 -927 928 0
-920 927 928 0
-26 -52 929 0
26 -929 0
52 -929 0
-913 -929 -930 0
913 929 -930 0
913 -929 930 0
-913 929 930 0
-924 -929 -931 0
924 929 -931 0
924 -929 931 0
-924 929 931 0
-904 -928 -932 0
904 928 -932 0
904 -928 932 0
-904 928 932 0
-922 -928 -933 0
922 928 -933 0
922 -928 933 0
-922 928 933 0
-895 -926 -934 0
895 926 -934 0
895 -926 934 0
-895 926 934 0
-926 -930 -935 0
926 930 -935 0
926 -930 935 0
-926 930 935 0
-889 -931 -936 0
889 931 -936 0
889 -931 936 0
-889 931 936 0
-931 -932 -937 0
931 932 -937 0
931 -932 937 0
-931 932 937 0
-27 -211 -938 0
27 211 -938 0
27 -211 938 0
-27 211 938 0
-25 -28 -939 0
25 28 -939 0
25 -28 939 0
-25 28 939 0
-29 -212 -940 0
29 212 -940 0
29 -212 940 0
-29 212 940 0
-30 -210 -941 0
30 210 -941 0
30 -210 941 0
-30 210 941 0
-24 -31 -942 0
24 31 -942 0
24 -31 942 0
-24 31 942 0
-936 -938 -943 0
936 938 -943 0
936 -938 943 0
-936 938 943 0
-934 -939 -944 0
934 939 -944 0
934 -939 944 0
-934 939 944 0
-937 -940 -945 0
937 940 -945 0
937 -940 945 0
-937 940 945 0
-935 -941 -946 0
935 941 -946 0
935 -941 946 0
-935 941 946 0
-933 -942 -947 0
933 942 -947 0
933 -942 947 0
-933 942 947 0
-2 -943 -948 0
2 943 -948 0
2 -943 948 0
-2 943 948 0
-2 -944 -949 0
2 944 -949 0
2 -944 949 0
-2 944 949 0
-2 -945 -950 0
2 945 -950 0
2 -945 950 0
-2 945 950 0
-2 -946 -951 0
2 946 -951 0
2 -946 951 0
-2 946 951 0
-2 -947 -952 0
2 947 -952 0
2 -947 952 0
-2 947 952 0
-948 -949 953 0
948 -953 0
949 -953 0
-950 -953 954 0
950 -954 0
953 -954 0
-951 -954 955 0
951 -955 0
954 -955 0
-952 -955 956 0
952 -956 0
955 -956 0
-51 -52 -957 0
51 52 -957 0
51 -52 957 0
-51 52 957 0
-48 -52 -958 0
48 52 -958 0
48 -52 958 0
-48 52 958 0
-49 -52 -959 0
49 52 -959 0
49 -52 959 0
-49 52 959 0
-48 -958 -960 0
48 958 -960 0
48 -958 960 0
-48 958 960 0
-49 -51 -961 0
49 51 -961 0
49 -51 961 0
-49 51 961 0
-50 -959 -962 0
50 959 -962 0
50 -959 962 0
-50 959 962 0
-51 -957 -963 0
51 957 -963 0
51 -957 963 0
-51 957 963 0
-50 -52 -964 0
50 52 -964 0
50 -52 964 0
-50 52 964 0
-2 -48 -965 0
2 48 -965 0
2 -48 965 0
-2 48 965 0
-33 -965 966 0
33 -966 0
965 -966 0
-34 -965 967 0
34 -967 0
965 -967 0
-35 -965 968 0
35 -968 0
965 -968 0
-36 -965 969 0
36 -969 0
965 -969 0
-37 -965 970 0
37 -970 0
965 -970 0
-33 -49 971 0
33 -971 0
49 -971 0
-967 -971 -972 0
967 971 -972 0
967 -971 972 0
-967 971 972 0
-34 -49 973 0
34 -973 0
49 -973 0
-968 -973 -974 0
968 973 -974 0
968 -973 974 0
-968 973 974 0
-35 -49 975 0
35 -975 0
49 -975 0
-969 -975 -976 0
969 975 -976 0
969 -975 976 0
-969 975 976 0
-36 -49 977 0
36 -977 0
49 -977 0
-970 -977 -978 0
970 977 -978 0
970 -977 978 0
-970 977 978 0
-37 -49 979 0
37 -979 0
49 -979 0
-33 -50 980 0
33 -980 0
50 -980 0
-974 -980 -981 0
974 980 -981 0
974 -980 981 0
-974 980 981 0
-34 -50 982 0
34 -982 0
50 -982 0
-976 -982 -983 0
976 982 -983 0
976 -982 983 0
-976 982 983 0
-35 -50 984 0
35 -984 0
50 -984 0
-978 -984 -985 0
978 984 -985 0
978 -984 985 0
-978 984 985 0
-36 -50 986 0
36 -986 0
50 -986 0
-979 -986 -987 0
979 986 -987 0
979 -986 987 0
-979 986 987 0
-37 -50 988 0
37 -988 0
50 -988 0
-33 -51 989 0
33 -989 0
51 -989 0
-983 -989 -990 0
983 989 -990 0
983 -989 990 0
-983 989 990 0
-34 -51 991 0
34 -991 0
51 -991 0
-985 -991 -992 0
985 991 -992 0
985 -991 992 0
-985 991 992 0
-35 -51 993 0
35 -993 0
51 -993 0
-987 -993 -994 0
987 993 -994 0
987 -993 994 0
-987 993 994 0
-36 -51 995 0
36 -995 0
51 -995 0
-988 -995 -996 0
988 995 -996 0
988 -995 996 0
-988 995 996 0
-37 -51 997 0
37 -997 0
51 -997 0
-33 -52 998 0
33 -998 0
52 -998 0
-992 -998 -999 0
992 998 -999 0
992 -998 999 0
-992 998 999 0
-34 -52 1000 0
34 -1000 0
52 -1000 0
-994 -1000 -1001 0
994 1000 -1001 0
994 -1000 1001 0
-994 1000 1001 0
-35 -52 1002 0
35 -1002 0
52 -1002 0
-996 -1002 -1003 0
996 1002 -1003 0
996 -1002 1003 0
-996 1002 1003 0
-36 -52 1004 0
36 -1004 0
52 -1004 0
-997 -1004 -1005 0
997 1004 -1005 0
997 -1004 1005 0
-997 1004 1005 0
-37 -52 1006 0
37 -1006 0
52 -1006 0
-990 -1006 -1007 0
990 1006 -1007 0
990 -1006 1007 0
-990 1006 1007 0
-1001 -1006 -1008 0
1001 1006 -1008 0
1001 -1006 1008 0
-1001 1006 1008 0
-981 -1005 -1009 0
981 1005 -1009 0
981 -1005 1009 0
-981 1005 1009 0
-999 -1005 -1010 0
999 1005 -1010 0
999 -1005 1010 0
-999 1005 1010 0
-972 -1003 -1011 0
972 1003 -1011 0
972 -1003 1011 0
-972 1003 1011 0
-1003 -1007 -1012 0
1003 1007 -1012 0
1003 -1007 1012 0
-1003 1007 1012 0
-966 -1008 -1013 0
966 1008 -1013 0
966 -1008 1013 0
-966 1008 1013 0
-1008 -1009 -1014 0
1008 1009 -1014 0
1008 -1009 1014 0
-1008 1009 1014 0
-211 -1013 -1015 0
211 1013 -1015 0
211 -1013 1015 0
-211 1013 1015 0
-25 -1011 -1016 0
25 1011 -1016 0
25 -1011 1016 0
-25 1011 1016 0
-212 -1014 -1017 0
212 1014 -1017 0
212 -1014 1017 0
-212 1014 1017 0
-210 -1012 -1018 0
210 1012 -1018 0
210 -1012 1018 0
-210 1012 1018 0
-24 -1010 -1019 0
24 1010 -1019 0
24 -1010 1019 0
-24 1010 1019 0
-33 -960 -1020 0
33 960 -1020 0
33 -960 1020 0
-33 960 1020 0
-34 -961 -1021 0
34 961 -1021 0
34 -961 1021 0
-34 961 1021 0
-35 -962 -1022 0
35 962 -1022 0
35 -962 1022 0
-35 962 1022 0
-36 -963 -1023 0
36 963 -1023 0
36 -963 1023 0
-36 963 1023 0
-37 -964 -1024 0
37 964 -1024 0
37 -964 1024 0
-37 964 1024 0
-2 -1020 -1025 0
2 1020 -1025 0
2 -1020 1025 0
-2 1020 1025 0
-2 -1021 -1026 0
2 1021 -1026 0
2 -1021 1026 0
-2 1021 1026 0
-2 -1022 -1027 0
2 1022 -1027 0
2 -1022 1027 0
-2 1022 1027 0
-2 -1023 -1028 0
2 1023 -1028 0
2 -1023 1028 0
-2 1023 1028 0
-2 -1024 -1029 0
2 1024 -1029 0
2 -1024 1029 0
-2 1024 1029 0
-1025 -1026 1030 0
1025 -1030 0
1026 -1030 0
-1027 -1030 1031 0
1027 -1031 0
1030 -1031 0
-1028 -1031 1032 0
1028 -1032 0
1031 -1032 0
-1029 -1032 1033 0
1029 -1033 0
1032 -1033 0
-38 -1015 -1034 0
38 1015 -1034 0
38 -1015 1034 0
-38 1015 1034 0
-39 -1016 -1035 0
39 1016 -1035 0
39 -1016 1035 0
-39 1016 1035 0
-40 -1017 -1036 0
40 1017 -1036 0
40 -1017 1036 0
-40 1017 1036 0
-41 -1018 -1037 0
41 1018 -1037 0
41 -1018 1037 0
-41 1018 1037 0
-42 -1019 -1038 0
42 1019 -1038 0
42 -1019 1038 0
-42 1019 1038 0
-2 -1034 -1039 0
2 1034 -1039 0
2 -1034 1039 0
-2 1034 1039 0
-2 -1035 -1040 0
2 1035 -1040 0
2 -1035 1040 0
-2 1035 1040 0
-2 -1036 -1041 0
2 1036 -1041 0
2 -1036 1041 0
-2 1036 1041 0
-2 -1037 -1042 0
2 1037 -1042 0
2 -1037 1042 0
-2 1037 1042 0
-2 -1038 -1043 0
2 1038 -1043 0
2 -1038 1043 0
-2 1038 1043 0
-1039 -1040 1044 0
1039 -1044 0
1040 -1044 0
-1041 -1044 1045 0
1041 -1045 0
1044 -1045 0
-1042 -1045 1046 0
1042 -1046 0
1045 -1046 0
-1043 -1046 1047 0
1043 -1047 0
1046 -1047 0
-639 -956 1048 0
639 -1048 0
956 -1048 0
-1033 -1048 1049 0
1033 -1049 0
1048 -1049 0
-1047 -1049 1050 0
1047 -1050 0
1049 -1050 0
-2 -820 -1051 0
2 820 -1051 0
2 -820 1051 0
-2 820 1051 0
-2 -1050 -1052 0
2 1050 -1052 0
2 -1050 1052 0
-2 1050 1052 0
-1051 -1052 1053 0
1051 -1053 0
1052 -1053 0
-2 -1053 -1054 0
2 1053 -1054 0
2 -1053 1054 0
-2 1053 1054 0
-48 -772 1055 0
48 -1055 0
772 -1055 0
-896 -1055 -1056 0
896 1055 -1056 0
896 -1055 1056 0
-896 1055 1056 0
-49 -772 1057 0
49 -1057 0
772 -1057 0
-892 -1057 -1058 0
892 1057 -1058 0
892 -1057 1058 0
-892 1057 1058 0
-903 -1056 -1059 0
903 1056 -1059 0
903 -1056 1059 0
-903 1056 1059 0
-905 -1058 -1060 0
905 1058 -1060 0
905 -1058 1060 0
-905 1058 1060 0
-50 -772 1061 0
50 -1061 0
772 -1061 0
-901 -1061 -1062 0
901 1061 -1062 0
901 -1061 1062 0
-901 1061 1062 0
-912 -1060 -1063 0
912 1060 -1063 0
912 -1060 1063 0
-912 1060 1063 0
-914 -1062 -1064 0
914 1062 -1064 0
914 -1062 1064 0
-914 1062 1064 0
-51 -772 1065 0
51 -1065 0
772 -1065 0
-910 -1065 -1066 0
910 1065 -1066 0
910 -1065 1066 0
-910 1065 1066 0
-921 -1064 -1067 0
921 1064 -1067 0
921 -1064 1067 0
-921 1064 1067 0
-923 -1066 -1068 0
923 1066 -1068 0
923 -1066 1068 0
-923 1066 1068 0
-52 -772 1069 0
52 -1069 0
772 -1069 0
-919 -1069 -1070 0
919 1069 -1070 0
919 -1069 1070 0
-919 1069 1070 0
-929 -1063 -1071 0
929 1063 -1071 0
929 -1063 1071 0
-929 1063 1071 0
-929 -1068 -1072 0
929 1068 -1072 0
929 -1068 1072 0
-929 1068 1072 0
-928 -1059 -1073 0
928 1059 -1073 0
928 -1059 1073 0
-928 1059 1073 0
-928 -1067 -1074 0
928 1067 -1074 0
928 -1067 1074 0
-928 1067 1074 0
-895 -1070 -1075 0
895 1070 -1075 0
895 -1070 1075 0
-895 1070 1075 0
-1070 -1071 -1076 0
1070 1071 -1076 0
1070 -1071 1076 0
-1070 1071 1076 0
-889 -1072 -1077 0
889 1072 -1077 0
889 -1072 1077 0
-889 1072 1077 0
-1072 -1073 -1078 0
1072 1073 -1078 0
1072 -1073 1078 0
-1072 1073 1078 0
-777 -1077 -1079 0
777 1077 -1079 0
777 -1077 1079 0
-777 1077 1079 0
-778 -1075 -1080 0
778 1075 -1080 0
778 -1075 1080 0
-778 1075 1080 0
-779 -1078 -1081 0
779 1078 -1081 0
779 -1078 1081 0
-779 1078 1081 0
-780 -1076 -1082 0
780 1076 -1082 0
780 -1076 1082 0
-780 1076 1082 0
-781 -1074 -1083 0
781 1074 -1083 0
781 -1074 1083 0
-781 1074 1083 0
-2 -1079 -1084 0
2 1079 -1084 0
2 -1079 1084 0
-2 1079 1084 0
-2 -1080 -1085 0
2 1080 -1085 0
2 -1080 1085 0
-2 1080 1085 0
-2 -1081 -1086 0
2 1081 -1086 0
2 -1081 1086 0
-2 1081 1086 0
-2 -1082 -1087 0
2 1082 -1087 0
2 -1082 1087 0
-2 1082 1087 0
-2 -1083 -1088 0
2 1083 -1088 0
2 -1083 1088 0
-2 1083 1088 0
-1084 -1085 1089 0
1084 -1089 0
1085 -1089 0
-1086 -1089 1090 0
1086 -1090 0
1089 -1090 0
-1087 -1090 1091 0
1087 -1091 0
1090 -1091 0
-1088 -1091 1092 0
1088 -1092 0
1091 -1092 0
-22 -960 -1093 0
22 960 -1093 0
22 -960 1093 0
-22 960 1093 0
-23 -961 -1094 0
23 961 -1094 0
23 -961 1094 0
-23 961 1094 0
-772 -962 -1095 0
772 962 -1095 0
772 -962 1095 0
-772 962 1095 0
-25 -963 -1096 0
25 963 -1096 0
25 -963 1096 0
-25 963 1096 0
-26 -964 -1097 0
26 964 -1097 0
26 -964 1097 0
-26 964 1097 0
-48 -853 1098 0
48 -1098 0
853 -1098 0
-48 -854 1099 0
48 -1099 0
854 -1099 0
-48 -855 1100 0
48 -1100 0
855 -1100 0
-48 -856 1101 0
48 -1101 0
856 -1101 0
-48 -857 1102 0
48 -1102 0
857 -1102 0
-49 -853 1103 0
49 -1103 0
853 -1103 0
-1099 -1103 -1104 0
1099 1103 -1104 0
1099 -1103 1104 0
-1099 1103 1104 0
-49 -854 1105 0
49 -1105 0
854 -1105 0
-1100 -1105 -1106 0
1100 1105 -1106 0
1100 -1105 1106 0
-1100 1105 1106 0
-49 -855 1107 0
49 -1107 0
855 -1107 0
-1101 -1107 -1108 0
1101 1107 -1108 0
1101 -1107 1108 0
-1101 1107 1108 0
-49 -856 1109 0
49 -1109 0
856 -1109 0
-1102 -1109 -1110 0
1102 1109 -1110 0
1102 -1109 1110 0
-1102 1109 1110 0
-49 -857 1111 0
49 -1111 0
857 -1111 0
-50 -853 1112 0
50 -1112 0
853 -1112 0
-1106 -1112 -1113 0
1106 1112 -1113 0
1106 -1112 1113 0
-1106 1112 1113 0
-50 -854 1114 0
50 -1114 0
854 -1114 0
-1108 -1114 -1115 0
1108 1114 -1115 0
1108 -1114 1115 0
-1108 1114 1115 0
-50 -855 1116 0
50 -1116 0
855 -1116 0
-1110 -1116 -1117 0
1110 1116 -1117 0
1110 -1116 1117 0
-1110 1116 1117 0
-50 -856 1118 0
50 -1118 0
856 -1118 0
-1111 -1118 -1119 0
1111 1118 -1119 0
1111 -1118 1119 0
-1111 1118 1119 0
-50 -857 1120 0
50 -1120 0
857 -1120 0
-51 -853 1121 0
51 -1121 0
853 -1121 0
-1115 -1121 -1122 0
1115 1121 -1122 0
1115 -1121 1122 0
-1115 1121 1122 0
-51 -854 1123 0
51 -1123 0
854 -1123 0
-1117 -1123 -1124 0
1117 1123 -1124 0
1117 -1123 1124 0
-1117 1123 1124 0
-51 -855 1125 0
51 -1125 0
855 -1125 0
-1119 -1125 -1126 0
1119 1125 -1126 0
1119 -1125 1126 0
-1119 1125 1126 0
-51 -856 1127 0
51 -1127 0
856 -1127 0
-1120 -1127 -1128 0
1120 1127 -1128 0
1120 -1127 1128 0
-1120 1127 1128 0
-51 -857 1129 0
51 -1129 0
857 -1129 0
-52 -853 1130 0
52 -1130 0
853 -1130 0
-1124 -1130 -1131 0
1124 1130 -1131 0
1124 -1130 1131 0
-1124 1130 1131 0
-52 -854 1132 0
52 -1132 0
854 -1132 0
-1126 -1132 -1133 0
1126 1132 -1133 0
1126 -1132 1133 0
-1126 1132 1133 0
-52 -855 1134 0
52 -1134 0
855 -1134 0
-1128 -1134 -1135 0
1128 1134 -1135 0
1128 -1134 1135 0
-1128 1134 1135 0
-52 -856 1136 0
52 -1136 0
856 -1136 0
-1129 -1136 -1137 0
1129 1136 -1137 0
1129 -1136 1137 0
-1129 1136 1137 0
-52 -857 1138 0
52 -1138 0
857 -1138 0
-1122 -1138 -1139 0
1122 1138 -1139 0
1122 -1138 1139 0
-1122 1138 1139 0
-1133 -1138 -1140 0
1133 1138 -1140 0
1133 -1138 1140 0
-1133 1138 1140 0
-1113 -1137 -1141 0
1113 1137 -1141 0
1113 -1137 1141 0
-1113 1137 1141 0
-1131 -1137 -1142 0
1131 1137 -1142 0
1131 -1137 1142 0
-1131 1137 1142 0
-1104 -1135 -1143 0
1104 1135 -1143 0
1104 -1135 1143 0
-1104 1135 1143 0
-1135 -1139 -1144 0
1135 1139 -1144 0
1135 -1139 1144 0
-1135 1139 1144 0
-1098 -1140 -1145 0
1098 1140 -1145 0
1098 -1140 1145 0
-1098 1140 1145 0
-1140 -1141 -1146 0
1140 1141 -1146 0
1140 -1141 1146 0
-1140 1141 1146 0
-33 -1145 -1147 0
33 1145 -1147 0
33 -1145 1147 0
-33 1145 1147 0
-34 -1143 -1148 0
34 1143 -1148 0
34 -1143 1148 0
-34 1143 1148 0
-35 -1146 -1149 0
35 1146 -1149 0
35 -1146 1149 0
-35 1146 1149 0
-36 -1144 -1150 0
36 1144 -1150 0
36 -1144 1150 0
-36 1144 1150 0
-37 -1142 -1151 0
37 1142 -1151 0
37 -1142 1151 0
-37 1142 1151 0
-27 -1147 -1152 0
27 1147 -1152 0
27 -1147 1152 0
-27 1147 1152 0
-28 -1148 -1153 0
28 1148 -1153 0
28 -1148 1153 0
-28 1148 1153 0
-29 -1149 -1154 0
29 1149 -1154 0
29 -1149 1154 0
-29 1149 1154 0
-30 -1150 -1155 0
30 1150 -1155 0
30 -1150 1155 0
-30 1150 1155 0
-31 -1151 -1156 0
31 1151 -1156 0
31 -1151 1156 0
-31 1151 1156 0
-33 -1093 -1157 0
33 1093 -1157 0
33 -1093 1157 0
-33 1093 1157 0
-34 -1094 -1158 0
34 1094 -1158 0
34 -1094 1158 0
-34 1094 1158 0
-35 -1095 -1159 0
35 1095 -1159 0
35 -1095 1159 0
-35 1095 1159 0
-36 -1096 -1160 0
36 1096 -1160 0
36 -1096 1160 0
-36 1096 1160 0
-37 -1097 -1161 0
37 1097 -1161 0
37 -1097 1161 0
-37 1097 1161 0
-2 -1157 -1162 0
2 1157 -1162 0
2 -1157 1162 0
-2 1157 1162 0
-2 -1158 -1163 0
2 1158 -1163 0
2 -1158 1163 0
-2 1158 1163 0
-2 -1159 -1164 0
2 1159 -1164 0
2 -1159 1164 0
-2 1159 1164 0
-2 -1160 -1165 0
2 1160 -1165 0
2 -1160 1165 0
-2 1160 1165 0
-2 -1161 -1166 0
2 1161 -1166 0
2 -1161 1166 0
-2 1161 1166 0
-1162 -1163 1167 0
1162 -1167 0
1163 -1167 0
-1164 -1167 1168 0
1164 -1168 0
1167 -1168 0
-1165 -1168 1169 0
1165 -1169 0
1168 -1169 0
-1166 -1169 1170 0
1166 -1170 0
1169 -1170 0
-38 -1152 -1171 0
38 1152 -1171 0
38 -1152 1171 0
-38 1152 1171 0
-39 -1153 -1172 0
39 1153 -1172 0
39 -1153 1172 0
-39 1153 1172 0
-40 -1154 -1173 0
40 1154 -1173 0
40 -1154 1173 0
-40 1154 1173 0
-41 -1155 -1174 0
41 1155 -1174 0
41 -1155 1174 0
-41 1155 1174 0
-42 -1156 -1175 0
42 1156 -1175 0
42 -1156 1175 0
-42 1156 1175 0
-2 -1171 -1176 0
2 1171 -1176 0
2 -1171 1176 0
-2 1171 1176 0
-2 -1172 -1177 0
2 1172 -1177 0
2 -1172 1177 0
-2 1172 1177 0
-2 -1173 -1178 0
2 1173 -1178 0
2 -1173 1178 0
-2 1173 1178 0
-2 -1174 -1179 0
2 1174 -1179 0
2 -1174 1179 0
-2 1174 1179 0
-2 -1175 -1180 0
2 1175 -1180 0
2 -1175 1180 0
-2 1175 1180 0
-1176 -1177 1181 0
1176 -1181 0
1177 -1181 0
-1178 -1181 1182 0
1178 -1182 0
1181 -1182 0
-1179 -1182 1183 0
1179 -1183 0
1182 -1183 0
-1180 -1183 1184 0
1180 -1184 0
1183 -1184 0
-639 -1092 1185 0
639 -1185 0
1092 -1185 0
-1170 -1185 1186 0
1170 -1186 0
1185 -1186 0
-1184 -1186 1187 0
1184 -1187 0
1186 -1187 0
-2 -824 -1188 0
2 824 -1188 0
2 -824 1188 0
-2 824 1188 0
-2 -1187 -1189 0
2 1187 -1189 0
2 -1187 1189 0
-2 1187 1189 0
-1188 -1189 1190 0
1188 -1190 0
1189 -1190 0
-2 -1190 -1191 0
2 1190 -1191 0
2 -1190 1191 0
-2 1190 1191 0
-771 -826 1192 0
771 -1192 0
826 -1192 0
-850 -1192 1193 0
850 -1193 0
1192 -1193 0
-888 -1193 1194 0
888 -1194 0
1193 -1194 0
-1054 -1194 1195 0
1054 -1195 0
1194 -1195 0
-1191 -1195 1196 0
1191 -1196 0
1195 -1196 0
-578 -1196 1197 0
578 -1197 0
1196 -1197 0
1197 0
-32 0
-33 0
-34 0
-35 0
-36 0
-37 0
38 0
-39 0
-40 0
-41 0
-42 0
