c frozen O-aware sign-complete rational recursive S3 base
p cnf 22 66
1 2 0
-1 -2 0
3 4 0
-3 -4 0
5 6 0
-5 -6 0
7 8 0
-7 -8 0
9 10 0
-9 -10 0
11 12 13 0
-11 -12 0
-11 -13 0
-12 -13 0
14 15 16 0
-14 -15 0
-14 -16 0
-15 -16 0
17 18 19 0
-17 -18 0
-17 -19 0
-18 -19 0
20 21 22 0
-20 -21 0
-20 -22 0
-21 -22 0
-1 -3 -12 0
-1 -3 -13 0
-1 -4 -11 0
-1 -4 -12 0
-2 -3 -11 0
-2 -3 -12 0
-2 -4 -13 0
-11 -5 -14 0
-11 -5 -16 0
-11 -6 -14 0
-11 -6 -15 0
-12 -5 -15 0
-12 -5 -16 0
-12 -6 -14 0
-12 -6 -15 0
-13 -5 -14 0
-13 -5 -15 0
-13 -6 -16 0
-14 -7 -17 0
-14 -7 -19 0
-14 -8 -17 0
-14 -8 -18 0
-15 -7 -18 0
-15 -7 -19 0
-15 -8 -17 0
-15 -8 -18 0
-16 -7 -17 0
-16 -7 -18 0
-16 -8 -19 0
-17 -9 -20 0
-17 -9 -22 0
-17 -10 -20 0
-17 -10 -21 0
-18 -9 -21 0
-18 -9 -22 0
-18 -10 -20 0
-18 -10 -21 0
-19 -9 -20 0
-19 -9 -21 0
-19 -10 -22 0
