p cnf 2000 6605
-1 -10 79 0
1 -79 0
10 -79 0
-1 -10 -19 80 0
1 -80 0
10 -80 0
19 -80 0
-1 -10 -20 81 0
1 -81 0
10 -81 0
20 -81 0
-1 -10 -21 82 0
1 -82 0
10 -82 0
21 -82 0
-1 -10 -22 83 0
1 -83 0
10 -83 0
22 -83 0
-1 -10 -23 84 0
1 -84 0
10 -84 0
23 -84 0
-1 -10 -24 85 0
1 -85 0
10 -85 0
24 -85 0
-1 -10 -25 86 0
1 -86 0
10 -86 0
25 -86 0
-1 -10 -26 87 0
1 -87 0
10 -87 0
26 -87 0
-1 -10 -27 88 0
1 -88 0
10 -88 0
27 -88 0
-1 -11 89 0
1 -89 0
11 -89 0
-1 -11 -19 90 0
1 -90 0
11 -90 0
19 -90 0
-1 -11 -20 91 0
1 -91 0
11 -91 0
20 -91 0
-1 -11 -21 92 0
1 -92 0
11 -92 0
21 -92 0
-1 -11 -22 93 0
1 -93 0
11 -93 0
22 -93 0
-1 -11 -23 94 0
1 -94 0
11 -94 0
23 -94 0
-1 -11 -24 95 0
1 -95 0
11 -95 0
24 -95 0
-1 -11 -25 96 0
1 -96 0
11 -96 0
25 -96 0
-1 -11 -26 97 0
1 -97 0
11 -97 0
26 -97 0
-1 -11 -27 98 0
1 -98 0
11 -98 0
27 -98 0
-1 -12 99 0
1 -99 0
12 -99 0
-1 -12 -19 100 0
1 -100 0
12 -100 0
19 -100 0
-1 -12 -20 101 0
1 -101 0
12 -101 0
20 -101 0
-1 -12 -21 102 0
1 -102 0
12 -102 0
21 -102 0
-1 -12 -22 103 0
1 -103 0
12 -103 0
22 -103 0
-1 -12 -23 104 0
1 -104 0
12 -104 0
23 -104 0
-1 -12 -24 105 0
1 -105 0
12 -105 0
24 -105 0
-1 -12 -25 106 0
1 -106 0
12 -106 0
25 -106 0
-1 -12 -26 107 0
1 -107 0
12 -107 0
26 -107 0
-1 -12 -27 108 0
1 -108 0
12 -108 0
27 -108 0
-1 -13 109 0
1 -109 0
13 -109 0
-1 -13 -19 110 0
1 -110 0
13 -110 0
19 -110 0
-1 -13 -20 111 0
1 -111 0
13 -111 0
20 -111 0
-1 -13 -21 112 0
1 -112 0
13 -112 0
21 -112 0
-1 -13 -22 113 0
1 -113 0
13 -113 0
22 -113 0
-1 -13 -23 114 0
1 -114 0
13 -114 0
23 -114 0
-1 -13 -24 115 0
1 -115 0
13 -115 0
24 -115 0
-1 -13 -25 116 0
1 -116 0
13 -116 0
25 -116 0
-1 -13 -26 117 0
1 -117 0
13 -117 0
26 -117 0
-1 -13 -27 118 0
1 -118 0
13 -118 0
27 -118 0
-1 -14 119 0
1 -119 0
14 -119 0
-1 -14 -19 120 0
1 -120 0
14 -120 0
19 -120 0
-1 -14 -20 121 0
1 -121 0
14 -121 0
20 -121 0
-1 -14 -21 122 0
1 -122 0
14 -122 0
21 -122 0
-1 -14 -22 123 0
1 -123 0
14 -123 0
22 -123 0
-1 -14 -23 124 0
1 -124 0
14 -124 0
23 -124 0
-1 -14 -24 125 0
1 -125 0
14 -125 0
24 -125 0
-1 -14 -25 126 0
1 -126 0
14 -126 0
25 -126 0
-1 -14 -26 127 0
1 -127 0
14 -127 0
26 -127 0
-1 -14 -27 128 0
1 -128 0
14 -128 0
27 -128 0
-1 -15 129 0
1 -129 0
15 -129 0
-1 -15 -19 130 0
1 -130 0
15 -130 0
19 -130 0
-1 -15 -20 131 0
1 -131 0
15 -131 0
20 -131 0
-1 -15 -21 132 0
1 -132 0
15 -132 0
21 -132 0
-1 -15 -22 133 0
1 -133 0
15 -133 0
22 -133 0
-1 -15 -23 134 0
1 -134 0
15 -134 0
23 -134 0
-1 -15 -24 135 0
1 -135 0
15 -135 0
24 -135 0
-1 -15 -25 136 0
1 -136 0
15 -136 0
25 -136 0
-1 -15 -26 137 0
1 -137 0
15 -137 0
26 -137 0
-1 -15 -27 138 0
1 -138 0
15 -138 0
27 -138 0
-1 -16 139 0
1 -139 0
16 -139 0
-1 -16 -19 140 0
1 -140 0
16 -140 0
19 -140 0
-1 -16 -20 141 0
1 -141 0
16 -141 0
20 -141 0
-1 -16 -21 142 0
1 -142 0
16 -142 0
21 -142 0
-1 -16 -22 143 0
1 -143 0
16 -143 0
22 -143 0
-1 -16 -23 144 0
1 -144 0
16 -144 0
23 -144 0
-1 -16 -24 145 0
1 -145 0
16 -145 0
24 -145 0
-1 -16 -25 146 0
1 -146 0
16 -146 0
25 -146 0
-1 -16 -26 147 0
1 -147 0
16 -147 0
26 -147 0
-1 -16 -27 148 0
1 -148 0
16 -148 0
27 -148 0
-1 -17 149 0
1 -149 0
17 -149 0
-1 -17 -19 150 0
1 -150 0
17 -150 0
19 -150 0
-1 -17 -20 151 0
1 -151 0
17 -151 0
20 -151 0
-1 -17 -21 152 0
1 -152 0
17 -152 0
21 -152 0
-1 -17 -22 153 0
1 -153 0
17 -153 0
22 -153 0
-1 -17 -23 154 0
1 -154 0
17 -154 0
23 -154 0
-1 -17 -24 155 0
1 -155 0
17 -155 0
24 -155 0
-1 -17 -25 156 0
1 -156 0
17 -156 0
25 -156 0
-1 -17 -26 157 0
1 -157 0
17 -157 0
26 -157 0
-1 -17 -27 158 0
1 -158 0
17 -158 0
27 -158 0
-1 -18 159 0
1 -159 0
18 -159 0
-1 -18 -19 160 0
1 -160 0
18 -160 0
19 -160 0
-1 -18 -20 161 0
1 -161 0
18 -161 0
20 -161 0
-1 -18 -21 162 0
1 -162 0
18 -162 0
21 -162 0
-1 -18 -22 163 0
1 -163 0
18 -163 0
22 -163 0
-1 -18 -23 164 0
1 -164 0
18 -164 0
23 -164 0
-1 -18 -24 165 0
1 -165 0
18 -165 0
24 -165 0
-1 -18 -25 166 0
1 -166 0
18 -166 0
25 -166 0
-1 -18 -26 167 0
1 -167 0
18 -167 0
26 -167 0
-1 -18 -27 168 0
1 -168 0
18 -168 0
27 -168 0
-1 -19 169 0
1 -169 0
19 -169 0
-1 -20 170 0
1 -170 0
20 -170 0
-1 -21 171 0
1 -171 0
21 -171 0
-1 -22 172 0
1 -172 0
22 -172 0
-1 -23 173 0
1 -173 0
23 -173 0
-1 -24 174 0
1 -174 0
24 -174 0
-1 -25 175 0
1 -175 0
25 -175 0
-1 -26 176 0
1 -176 0
26 -176 0
-1 -27 177 0
1 -177 0
27 -177 0
-2 -10 178 0
2 -178 0
10 -178 0
-2 -10 -19 179 0
2 -179 0
10 -179 0
19 -179 0
-2 -10 -20 180 0
2 -180 0
10 -180 0
20 -180 0
-2 -10 -21 181 0
2 -181 0
10 -181 0
21 -181 0
-2 -10 -22 182 0
2 -182 0
10 -182 0
22 -182 0
-2 -10 -23 183 0
2 -183 0
10 -183 0
23 -183 0
-2 -10 -24 184 0
2 -184 0
10 -184 0
24 -184 0
-2 -10 -25 185 0
2 -185 0
10 -185 0
25 -185 0
-2 -10 -26 186 0
2 -186 0
10 -186 0
26 -186 0
-2 -10 -27 187 0
2 -187 0
10 -187 0
27 -187 0
-2 -11 188 0
2 -188 0
11 -188 0
-2 -11 -19 189 0
2 -189 0
11 -189 0
19 -189 0
-2 -11 -20 190 0
2 -190 0
11 -190 0
20 -190 0
-2 -11 -21 191 0
2 -191 0
11 -191 0
21 -191 0
-2 -11 -22 192 0
2 -192 0
11 -192 0
22 -192 0
-2 -11 -23 193 0
2 -193 0
11 -193 0
23 -193 0
-2 -11 -24 194 0
2 -194 0
11 -194 0
24 -194 0
-2 -11 -25 195 0
2 -195 0
11 -195 0
25 -195 0
-2 -11 -26 196 0
2 -196 0
11 -196 0
26 -196 0
-2 -11 -27 197 0
2 -197 0
11 -197 0
27 -197 0
-2 -12 198 0
2 -198 0
12 -198 0
-2 -12 -19 199 0
2 -199 0
12 -199 0
19 -199 0
-2 -12 -20 200 0
2 -200 0
12 -200 0
20 -200 0
-2 -12 -21 201 0
2 -201 0
12 -201 0
21 -201 0
-2 -12 -22 202 0
2 -202 0
12 -202 0
22 -202 0
-2 -12 -23 203 0
2 -203 0
12 -203 0
23 -203 0
-2 -12 -24 204 0
2 -204 0
12 -204 0
24 -204 0
-2 -12 -25 205 0
2 -205 0
12 -205 0
25 -205 0
-2 -12 -26 206 0
2 -206 0
12 -206 0
26 -206 0
-2 -12 -27 207 0
2 -207 0
12 -207 0
27 -207 0
-2 -13 208 0
2 -208 0
13 -208 0
-2 -13 -19 209 0
2 -209 0
13 -209 0
19 -209 0
-2 -13 -20 210 0
2 -210 0
13 -210 0
20 -210 0
-2 -13 -21 211 0
2 -211 0
13 -211 0
21 -211 0
-2 -13 -22 212 0
2 -212 0
13 -212 0
22 -212 0
-2 -13 -23 213 0
2 -213 0
13 -213 0
23 -213 0
-2 -13 -24 214 0
2 -214 0
13 -214 0
24 -214 0
-2 -13 -25 215 0
2 -215 0
13 -215 0
25 -215 0
-2 -13 -26 216 0
2 -216 0
13 -216 0
26 -216 0
-2 -13 -27 217 0
2 -217 0
13 -217 0
27 -217 0
-2 -14 218 0
2 -218 0
14 -218 0
-2 -14 -19 219 0
2 -219 0
14 -219 0
19 -219 0
-2 -14 -20 220 0
2 -220 0
14 -220 0
20 -220 0
-2 -14 -21 221 0
2 -221 0
14 -221 0
21 -221 0
-2 -14 -22 222 0
2 -222 0
14 -222 0
22 -222 0
-2 -14 -23 223 0
2 -223 0
14 -223 0
23 -223 0
-2 -14 -24 224 0
2 -224 0
14 -224 0
24 -224 0
-2 -14 -25 225 0
2 -225 0
14 -225 0
25 -225 0
-2 -14 -26 226 0
2 -226 0
14 -226 0
26 -226 0
-2 -14 -27 227 0
2 -227 0
14 -227 0
27 -227 0
-2 -15 228 0
2 -228 0
15 -228 0
-2 -15 -19 229 0
2 -229 0
15 -229 0
19 -229 0
-2 -15 -20 230 0
2 -230 0
15 -230 0
20 -230 0
-2 -15 -21 231 0
2 -231 0
15 -231 0
21 -231 0
-2 -15 -22 232 0
2 -232 0
15 -232 0
22 -232 0
-2 -15 -23 233 0
2 -233 0
15 -233 0
23 -233 0
-2 -15 -24 234 0
2 -234 0
15 -234 0
24 -234 0
-2 -15 -25 235 0
2 -235 0
15 -235 0
25 -235 0
-2 -15 -26 236 0
2 -236 0
15 -236 0
26 -236 0
-2 -15 -27 237 0
2 -237 0
15 -237 0
27 -237 0
-2 -16 238 0
2 -238 0
16 -238 0
-2 -16 -19 239 0
2 -239 0
16 -239 0
19 -239 0
-2 -16 -20 240 0
2 -240 0
16 -240 0
20 -240 0
-2 -16 -21 241 0
2 -241 0
16 -241 0
21 -241 0
-2 -16 -22 242 0
2 -242 0
16 -242 0
22 -242 0
-2 -16 -23 243 0
2 -243 0
16 -243 0
23 -243 0
-2 -16 -24 244 0
2 -244 0
16 -244 0
24 -244 0
-2 -16 -25 245 0
2 -245 0
16 -245 0
25 -245 0
-2 -16 -26 246 0
2 -246 0
16 -246 0
26 -246 0
-2 -16 -27 247 0
2 -247 0
16 -247 0
27 -247 0
-2 -17 248 0
2 -248 0
17 -248 0
-2 -17 -19 249 0
2 -249 0
17 -249 0
19 -249 0
-2 -17 -20 250 0
2 -250 0
17 -250 0
20 -250 0
-2 -17 -21 251 0
2 -251 0
17 -251 0
21 -251 0
-2 -17 -22 252 0
2 -252 0
17 -252 0
22 -252 0
-2 -17 -23 253 0
2 -253 0
17 -253 0
23 -253 0
-2 -17 -24 254 0
2 -254 0
17 -254 0
24 -254 0
-2 -17 -25 255 0
2 -255 0
17 -255 0
25 -255 0
-2 -17 -26 256 0
2 -256 0
17 -256 0
26 -256 0
-2 -17 -27 257 0
2 -257 0
17 -257 0
27 -257 0
-2 -18 258 0
2 -258 0
18 -258 0
-2 -18 -19 259 0
2 -259 0
18 -259 0
19 -259 0
-2 -18 -20 260 0
2 -260 0
18 -260 0
20 -260 0
-2 -18 -21 261 0
2 -261 0
18 -261 0
21 -261 0
-2 -18 -22 262 0
2 -262 0
18 -262 0
22 -262 0
-2 -18 -23 263 0
2 -263 0
18 -263 0
23 -263 0
-2 -18 -24 264 0
2 -264 0
18 -264 0
24 -264 0
-2 -18 -25 265 0
2 -265 0
18 -265 0
25 -265 0
-2 -18 -26 266 0
2 -266 0
18 -266 0
26 -266 0
-2 -18 -27 267 0
2 -267 0
18 -267 0
27 -267 0
-2 -19 268 0
2 -268 0
19 -268 0
-2 -20 269 0
2 -269 0
20 -269 0
-2 -21 270 0
2 -270 0
21 -270 0
-2 -22 271 0
2 -271 0
22 -271 0
-2 -23 272 0
2 -272 0
23 -272 0
-2 -24 273 0
2 -273 0
24 -273 0
-2 -25 274 0
2 -274 0
25 -274 0
-2 -26 275 0
2 -275 0
26 -275 0
-2 -27 276 0
2 -276 0
27 -276 0
-3 -10 277 0
3 -277 0
10 -277 0
-3 -10 -19 278 0
3 -278 0
10 -278 0
19 -278 0
-3 -10 -20 279 0
3 -279 0
10 -279 0
20 -279 0
-3 -10 -21 280 0
3 -280 0
10 -280 0
21 -280 0
-3 -10 -22 281 0
3 -281 0
10 -281 0
22 -281 0
-3 -10 -23 282 0
3 -282 0
10 -282 0
23 -282 0
-3 -10 -24 283 0
3 -283 0
10 -283 0
24 -283 0
-3 -10 -25 284 0
3 -284 0
10 -284 0
25 -284 0
-3 -10 -26 285 0
3 -285 0
10 -285 0
26 -285 0
-3 -10 -27 286 0
3 -286 0
10 -286 0
27 -286 0
-3 -11 287 0
3 -287 0
11 -287 0
-3 -11 -19 288 0
3 -288 0
11 -288 0
19 -288 0
-3 -11 -20 289 0
3 -289 0
11 -289 0
20 -289 0
-3 -11 -21 290 0
3 -290 0
11 -290 0
21 -290 0
-3 -11 -22 291 0
3 -291 0
11 -291 0
22 -291 0
-3 -11 -23 292 0
3 -292 0
11 -292 0
23 -292 0
-3 -11 -24 293 0
3 -293 0
11 -293 0
24 -293 0
-3 -11 -25 294 0
3 -294 0
11 -294 0
25 -294 0
-3 -11 -26 295 0
3 -295 0
11 -295 0
26 -295 0
-3 -11 -27 296 0
3 -296 0
11 -296 0
27 -296 0
-3 -12 297 0
3 -297 0
12 -297 0
-3 -12 -19 298 0
3 -298 0
12 -298 0
19 -298 0
-3 -12 -20 299 0
3 -299 0
12 -299 0
20 -299 0
-3 -12 -21 300 0
3 -300 0
12 -300 0
21 -300 0
-3 -12 -22 301 0
3 -301 0
12 -301 0
22 -301 0
-3 -12 -23 302 0
3 -302 0
12 -302 0
23 -302 0
-3 -12 -24 303 0
3 -303 0
12 -303 0
24 -303 0
-3 -12 -25 304 0
3 -304 0
12 -304 0
25 -304 0
-3 -12 -26 305 0
3 -305 0
12 -305 0
26 -305 0
-3 -12 -27 306 0
3 -306 0
12 -306 0
27 -306 0
-3 -13 307 0
3 -307 0
13 -307 0
-3 -13 -19 308 0
3 -308 0
13 -308 0
19 -308 0
-3 -13 -20 309 0
3 -309 0
13 -309 0
20 -309 0
-3 -13 -21 310 0
3 -310 0
13 -310 0
21 -310 0
-3 -13 -22 311 0
3 -311 0
13 -311 0
22 -311 0
-3 -13 -23 312 0
3 -312 0
13 -312 0
23 -312 0
-3 -13 -24 313 0
3 -313 0
13 -313 0
24 -313 0
-3 -13 -25 314 0
3 -314 0
13 -314 0
25 -314 0
-3 -13 -26 315 0
3 -315 0
13 -315 0
26 -315 0
-3 -13 -27 316 0
3 -316 0
13 -316 0
27 -316 0
-3 -14 317 0
3 -317 0
14 -317 0
-3 -14 -19 318 0
3 -318 0
14 -318 0
19 -318 0
-3 -14 -20 319 0
3 -319 0
14 -319 0
20 -319 0
-3 -14 -21 320 0
3 -320 0
14 -320 0
21 -320 0
-3 -14 -22 321 0
3 -321 0
14 -321 0
22 -321 0
-3 -14 -23 322 0
3 -322 0
14 -322 0
23 -322 0
-3 -14 -24 323 0
3 -323 0
14 -323 0
24 -323 0
-3 -14 -25 324 0
3 -324 0
14 -324 0
25 -324 0
-3 -14 -26 325 0
3 -325 0
14 -325 0
26 -325 0
-3 -14 -27 326 0
3 -326 0
14 -326 0
27 -326 0
-3 -15 327 0
3 -327 0
15 -327 0
-3 -15 -19 328 0
3 -328 0
15 -328 0
19 -328 0
-3 -15 -20 329 0
3 -329 0
15 -329 0
20 -329 0
-3 -15 -21 330 0
3 -330 0
15 -330 0
21 -330 0
-3 -15 -22 331 0
3 -331 0
15 -331 0
22 -331 0
-3 -15 -23 332 0
3 -332 0
15 -332 0
23 -332 0
-3 -15 -24 333 0
3 -333 0
15 -333 0
24 -333 0
-3 -15 -25 334 0
3 -334 0
15 -334 0
25 -334 0
-3 -15 -26 335 0
3 -335 0
15 -335 0
26 -335 0
-3 -15 -27 336 0
3 -336 0
15 -336 0
27 -336 0
-3 -16 337 0
3 -337 0
16 -337 0
-3 -16 -19 338 0
3 -338 0
16 -338 0
19 -338 0
-3 -16 -20 339 0
3 -339 0
16 -339 0
20 -339 0
-3 -16 -21 340 0
3 -340 0
16 -340 0
21 -340 0
-3 -16 -22 341 0
3 -341 0
16 -341 0
22 -341 0
-3 -16 -23 342 0
3 -342 0
16 -342 0
23 -342 0
-3 -16 -24 343 0
3 -343 0
16 -343 0
24 -343 0
-3 -16 -25 344 0
3 -344 0
16 -344 0
25 -344 0
-3 -16 -26 345 0
3 -345 0
16 -345 0
26 -345 0
-3 -16 -27 346 0
3 -346 0
16 -346 0
27 -346 0
-3 -17 347 0
3 -347 0
17 -347 0
-3 -17 -19 348 0
3 -348 0
17 -348 0
19 -348 0
-3 -17 -20 349 0
3 -349 0
17 -349 0
20 -349 0
-3 -17 -21 350 0
3 -350 0
17 -350 0
21 -350 0
-3 -17 -22 351 0
3 -351 0
17 -351 0
22 -351 0
-3 -17 -23 352 0
3 -352 0
17 -352 0
23 -352 0
-3 -17 -24 353 0
3 -353 0
17 -353 0
24 -353 0
-3 -17 -25 354 0
3 -354 0
17 -354 0
25 -354 0
-3 -17 -26 355 0
3 -355 0
17 -355 0
26 -355 0
-3 -17 -27 356 0
3 -356 0
17 -356 0
27 -356 0
-3 -18 357 0
3 -357 0
18 -357 0
-3 -18 -19 358 0
3 -358 0
18 -358 0
19 -358 0
-3 -18 -20 359 0
3 -359 0
18 -359 0
20 -359 0
-3 -18 -21 360 0
3 -360 0
18 -360 0
21 -360 0
-3 -18 -22 361 0
3 -361 0
18 -361 0
22 -361 0
-3 -18 -23 362 0
3 -362 0
18 -362 0
23 -362 0
-3 -18 -24 363 0
3 -363 0
18 -363 0
24 -363 0
-3 -18 -25 364 0
3 -364 0
18 -364 0
25 -364 0
-3 -18 -26 365 0
3 -365 0
18 -365 0
26 -365 0
-3 -18 -27 366 0
3 -366 0
18 -366 0
27 -366 0
-3 -19 367 0
3 -367 0
19 -367 0
-3 -20 368 0
3 -368 0
20 -368 0
-3 -21 369 0
3 -369 0
21 -369 0
-3 -22 370 0
3 -370 0
22 -370 0
-3 -23 371 0
3 -371 0
23 -371 0
-3 -24 372 0
3 -372 0
24 -372 0
-3 -25 373 0
3 -373 0
25 -373 0
-3 -26 374 0
3 -374 0
26 -374 0
-3 -27 375 0
3 -375 0
27 -375 0
-4 -10 376 0
4 -376 0
10 -376 0
-4 -10 -19 377 0
4 -377 0
10 -377 0
19 -377 0
-4 -10 -20 378 0
4 -378 0
10 -378 0
20 -378 0
-4 -10 -21 379 0
4 -379 0
10 -379 0
21 -379 0
-4 -10 -22 380 0
4 -380 0
10 -380 0
22 -380 0
-4 -10 -23 381 0
4 -381 0
10 -381 0
23 -381 0
-4 -10 -24 382 0
4 -382 0
10 -382 0
24 -382 0
-4 -10 -25 383 0
4 -383 0
10 -383 0
25 -383 0
-4 -10 -26 384 0
4 -384 0
10 -384 0
26 -384 0
-4 -10 -27 385 0
4 -385 0
10 -385 0
27 -385 0
-4 -11 386 0
4 -386 0
11 -386 0
-4 -11 -19 387 0
4 -387 0
11 -387 0
19 -387 0
-4 -11 -20 388 0
4 -388 0
11 -388 0
20 -388 0
-4 -11 -21 389 0
4 -389 0
11 -389 0
21 -389 0
-4 -11 -22 390 0
4 -390 0
11 -390 0
22 -390 0
-4 -11 -23 391 0
4 -391 0
11 -391 0
23 -391 0
-4 -11 -24 392 0
4 -392 0
11 -392 0
24 -392 0
-4 -11 -25 393 0
4 -393 0
11 -393 0
25 -393 0
-4 -11 -26 394 0
4 -394 0
11 -394 0
26 -394 0
-4 -11 -27 395 0
4 -395 0
11 -395 0
27 -395 0
-4 -12 396 0
4 -396 0
12 -396 0
-4 -12 -19 397 0
4 -397 0
12 -397 0
19 -397 0
-4 -12 -20 398 0
4 -398 0
12 -398 0
20 -398 0
-4 -12 -21 399 0
4 -399 0
12 -399 0
21 -399 0
-4 -12 -22 400 0
4 -400 0
12 -400 0
22 -400 0
-4 -12 -23 401 0
4 -401 0
12 -401 0
23 -401 0
-4 -12 -24 402 0
4 -402 0
12 -402 0
24 -402 0
-4 -12 -25 403 0
4 -403 0
12 -403 0
25 -403 0
-4 -12 -26 404 0
4 -404 0
12 -404 0
26 -404 0
-4 -12 -27 405 0
4 -405 0
12 -405 0
27 -405 0
-4 -13 406 0
4 -406 0
13 -406 0
-4 -13 -19 407 0
4 -407 0
13 -407 0
19 -407 0
-4 -13 -20 408 0
4 -408 0
13 -408 0
20 -408 0
-4 -13 -21 409 0
4 -409 0
13 -409 0
21 -409 0
-4 -13 -22 410 0
4 -410 0
13 -410 0
22 -410 0
-4 -13 -23 411 0
4 -411 0
13 -411 0
23 -411 0
-4 -13 -24 412 0
4 -412 0
13 -412 0
24 -412 0
-4 -13 -25 413 0
4 -413 0
13 -413 0
25 -413 0
-4 -13 -26 414 0
4 -414 0
13 -414 0
26 -414 0
-4 -13 -27 415 0
4 -415 0
13 -415 0
27 -415 0
-4 -14 416 0
4 -416 0
14 -416 0
-4 -14 -19 417 0
4 -417 0
14 -417 0
19 -417 0
-4 -14 -20 418 0
4 -418 0
14 -418 0
20 -418 0
-4 -14 -21 419 0
4 -419 0
14 -419 0
21 -419 0
-4 -14 -22 420 0
4 -420 0
14 -420 0
22 -420 0
-4 -14 -23 421 0
4 -421 0
14 -421 0
23 -421 0
-4 -14 -24 422 0
4 -422 0
14 -422 0
24 -422 0
-4 -14 -25 423 0
4 -423 0
14 -423 0
25 -423 0
-4 -14 -26 424 0
4 -424 0
14 -424 0
26 -424 0
-4 -14 -27 425 0
4 -425 0
14 -425 0
27 -425 0
-4 -15 426 0
4 -426 0
15 -426 0
-4 -15 -19 427 0
4 -427 0
15 -427 0
19 -427 0
-4 -15 -20 428 0
4 -428 0
15 -428 0
20 -428 0
-4 -15 -21 429 0
4 -429 0
15 -429 0
21 -429 0
-4 -15 -22 430 0
4 -430 0
15 -430 0
22 -430 0
-4 -15 -23 431 0
4 -431 0
15 -431 0
23 -431 0
-4 -15 -24 432 0
4 -432 0
15 -432 0
24 -432 0
-4 -15 -25 433 0
4 -433 0
15 -433 0
25 -433 0
-4 -15 -26 434 0
4 -434 0
15 -434 0
26 -434 0
-4 -15 -27 435 0
4 -435 0
15 -435 0
27 -435 0
-4 -16 436 0
4 -436 0
16 -436 0
-4 -16 -19 437 0
4 -437 0
16 -437 0
19 -437 0
-4 -16 -20 438 0
4 -438 0
16 -438 0
20 -438 0
-4 -16 -21 439 0
4 -439 0
16 -439 0
21 -439 0
-4 -16 -22 440 0
4 -440 0
16 -440 0
22 -440 0
-4 -16 -23 441 0
4 -441 0
16 -441 0
23 -441 0
-4 -16 -24 442 0
4 -442 0
16 -442 0
24 -442 0
-4 -16 -25 443 0
4 -443 0
16 -443 0
25 -443 0
-4 -16 -26 444 0
4 -444 0
16 -444 0
26 -444 0
-4 -16 -27 445 0
4 -445 0
16 -445 0
27 -445 0
-4 -17 446 0
4 -446 0
17 -446 0
-4 -17 -19 447 0
4 -447 0
17 -447 0
19 -447 0
-4 -17 -20 448 0
4 -448 0
17 -448 0
20 -448 0
-4 -17 -21 449 0
4 -449 0
17 -449 0
21 -449 0
-4 -17 -22 450 0
4 -450 0
17 -450 0
22 -450 0
-4 -17 -23 451 0
4 -451 0
17 -451 0
23 -451 0
-4 -17 -24 452 0
4 -452 0
17 -452 0
24 -452 0
-4 -17 -25 453 0
4 -453 0
17 -453 0
25 -453 0
-4 -17 -26 454 0
4 -454 0
17 -454 0
26 -454 0
-4 -17 -27 455 0
4 -455 0
17 -455 0
27 -455 0
-4 -18 456 0
4 -456 0
18 -456 0
-4 -18 -19 457 0
4 -457 0
18 -457 0
19 -457 0
-4 -18 -20 458 0
4 -458 0
18 -458 0
20 -458 0
-4 -18 -21 459 0
4 -459 0
18 -459 0
21 -459 0
-4 -18 -22 460 0
4 -460 0
18 -460 0
22 -460 0
-4 -18 -23 461 0
4 -461 0
18 -461 0
23 -461 0
-4 -18 -24 462 0
4 -462 0
18 -462 0
24 -462 0
-4 -18 -25 463 0
4 -463 0
18 -463 0
25 -463 0
-4 -18 -26 464 0
4 -464 0
18 -464 0
26 -464 0
-4 -18 -27 465 0
4 -465 0
18 -465 0
27 -465 0
-4 -19 466 0
4 -466 0
19 -466 0
-4 -20 467 0
4 -467 0
20 -467 0
-4 -21 468 0
4 -468 0
21 -468 0
-4 -22 469 0
4 -469 0
22 -469 0
-4 -23 470 0
4 -470 0
23 -470 0
-4 -24 471 0
4 -471 0
24 -471 0
-4 -25 472 0
4 -472 0
25 -472 0
-4 -26 473 0
4 -473 0
26 -473 0
-4 -27 474 0
4 -474 0
27 -474 0
-5 -10 475 0
5 -475 0
10 -475 0
-5 -10 -19 476 0
5 -476 0
10 -476 0
19 -476 0
-5 -10 -20 477 0
5 -477 0
10 -477 0
20 -477 0
-5 -10 -21 478 0
5 -478 0
10 -478 0
21 -478 0
-5 -10 -22 479 0
5 -479 0
10 -479 0
22 -479 0
-5 -10 -23 480 0
5 -480 0
10 -480 0
23 -480 0
-5 -10 -24 481 0
5 -481 0
10 -481 0
24 -481 0
-5 -10 -25 482 0
5 -482 0
10 -482 0
25 -482 0
-5 -10 -26 483 0
5 -483 0
10 -483 0
26 -483 0
-5 -10 -27 484 0
5 -484 0
10 -484 0
27 -484 0
-5 -11 485 0
5 -485 0
11 -485 0
-5 -11 -19 486 0
5 -486 0
11 -486 0
19 -486 0
-5 -11 -20 487 0
5 -487 0
11 -487 0
20 -487 0
-5 -11 -21 488 0
5 -488 0
11 -488 0
21 -488 0
-5 -11 -22 489 0
5 -489 0
11 -489 0
22 -489 0
-5 -11 -23 490 0
5 -490 0
11 -490 0
23 -490 0
-5 -11 -24 491 0
5 -491 0
11 -491 0
24 -491 0
-5 -11 -25 492 0
5 -492 0
11 -492 0
25 -492 0
-5 -11 -26 493 0
5 -493 0
11 -493 0
26 -493 0
-5 -11 -27 494 0
5 -494 0
11 -494 0
27 -494 0
-5 -12 495 0
5 -495 0
12 -495 0
-5 -12 -19 496 0
5 -496 0
12 -496 0
19 -496 0
-5 -12 -20 497 0
5 -497 0
12 -497 0
20 -497 0
-5 -12 -21 498 0
5 -498 0
12 -498 0
21 -498 0
-5 -12 -22 499 0
5 -499 0
12 -499 0
22 -499 0
-5 -12 -23 500 0
5 -500 0
12 -500 0
23 -500 0
-5 -12 -24 501 0
5 -501 0
12 -501 0
24 -501 0
-5 -12 -25 502 0
5 -502 0
12 -502 0
25 -502 0
-5 -12 -26 503 0
5 -503 0
12 -503 0
26 -503 0
-5 -12 -27 504 0
5 -504 0
12 -504 0
27 -504 0
-5 -13 505 0
5 -505 0
13 -505 0
-5 -13 -19 506 0
5 -506 0
13 -506 0
19 -506 0
-5 -13 -20 507 0
5 -507 0
13 -507 0
20 -507 0
-5 -13 -21 508 0
5 -508 0
13 -508 0
21 -508 0
-5 -13 -22 509 0
5 -509 0
13 -509 0
22 -509 0
-5 -13 -23 510 0
5 -510 0
13 -510 0
23 -510 0
-5 -13 -24 511 0
5 -511 0
13 -511 0
24 -511 0
-5 -13 -25 512 0
5 -512 0
13 -512 0
25 -512 0
-5 -13 -26 513 0
5 -513 0
13 -513 0
26 -513 0
-5 -13 -27 514 0
5 -514 0
13 -514 0
27 -514 0
-5 -14 515 0
5 -515 0
14 -515 0
-5 -14 -19 516 0
5 -516 0
14 -516 0
19 -516 0
-5 -14 -20 517 0
5 -517 0
14 -517 0
20 -517 0
-5 -14 -21 518 0
5 -518 0
14 -518 0
21 -518 0
-5 -14 -22 519 0
5 -519 0
14 -519 0
22 -519 0
-5 -14 -23 520 0
5 -520 0
14 -520 0
23 -520 0
-5 -14 -24 521 0
5 -521 0
14 -521 0
24 -521 0
-5 -14 -25 522 0
5 -522 0
14 -522 0
25 -522 0
-5 -14 -26 523 0
5 -523 0
14 -523 0
26 -523 0
-5 -14 -27 524 0
5 -524 0
14 -524 0
27 -524 0
-5 -15 525 0
5 -525 0
15 -525 0
-5 -15 -19 526 0
5 -526 0
15 -526 0
19 -526 0
-5 -15 -20 527 0
5 -527 0
15 -527 0
20 -527 0
-5 -15 -21 528 0
5 -528 0
15 -528 0
21 -528 0
-5 -15 -22 529 0
5 -529 0
15 -529 0
22 -529 0
-5 -15 -23 530 0
5 -530 0
15 -530 0
23 -530 0
-5 -15 -24 531 0
5 -531 0
15 -531 0
24 -531 0
-5 -15 -25 532 0
5 -532 0
15 -532 0
25 -532 0
-5 -15 -26 533 0
5 -533 0
15 -533 0
26 -533 0
-5 -15 -27 534 0
5 -534 0
15 -534 0
27 -534 0
-5 -16 535 0
5 -535 0
16 -535 0
-5 -16 -19 536 0
5 -536 0
16 -536 0
19 -536 0
-5 -16 -20 537 0
5 -537 0
16 -537 0
20 -537 0
-5 -16 -21 538 0
5 -538 0
16 -538 0
21 -538 0
-5 -16 -22 539 0
5 -539 0
16 -539 0
22 -539 0
-5 -16 -23 540 0
5 -540 0
16 -540 0
23 -540 0
-5 -16 -24 541 0
5 -541 0
16 -541 0
24 -541 0
-5 -16 -25 542 0
5 -542 0
16 -542 0
25 -542 0
-5 -16 -26 543 0
5 -543 0
16 -543 0
26 -543 0
-5 -16 -27 544 0
5 -544 0
16 -544 0
27 -544 0
-5 -17 545 0
5 -545 0
17 -545 0
-5 -17 -19 546 0
5 -546 0
17 -546 0
19 -546 0
-5 -17 -20 547 0
5 -547 0
17 -547 0
20 -547 0
-5 -17 -21 548 0
5 -548 0
17 -548 0
21 -548 0
-5 -17 -22 549 0
5 -549 0
17 -549 0
22 -549 0
-5 -17 -23 550 0
5 -550 0
17 -550 0
23 -550 0
-5 -17 -24 551 0
5 -551 0
17 -551 0
24 -551 0
-5 -17 -25 552 0
5 -552 0
17 -552 0
25 -552 0
-5 -17 -26 553 0
5 -553 0
17 -553 0
26 -553 0
-5 -17 -27 554 0
5 -554 0
17 -554 0
27 -554 0
-5 -18 555 0
5 -555 0
18 -555 0
-5 -18 -19 556 0
5 -556 0
18 -556 0
19 -556 0
-5 -18 -20 557 0
5 -557 0
18 -557 0
20 -557 0
-5 -18 -21 558 0
5 -558 0
18 -558 0
21 -558 0
-5 -18 -22 559 0
5 -559 0
18 -559 0
22 -559 0
-5 -18 -23 560 0
5 -560 0
18 -560 0
23 -560 0
-5 -18 -24 561 0
5 -561 0
18 -561 0
24 -561 0
-5 -18 -25 562 0
5 -562 0
18 -562 0
25 -562 0
-5 -18 -26 563 0
5 -563 0
18 -563 0
26 -563 0
-5 -18 -27 564 0
5 -564 0
18 -564 0
27 -564 0
-5 -19 565 0
5 -565 0
19 -565 0
-5 -20 566 0
5 -566 0
20 -566 0
-5 -21 567 0
5 -567 0
21 -567 0
-5 -22 568 0
5 -568 0
22 -568 0
-5 -23 569 0
5 -569 0
23 -569 0
-5 -24 570 0
5 -570 0
24 -570 0
-5 -25 571 0
5 -571 0
25 -571 0
-5 -26 572 0
5 -572 0
26 -572 0
-5 -27 573 0
5 -573 0
27 -573 0
-6 -10 574 0
6 -574 0
10 -574 0
-6 -10 -19 575 0
6 -575 0
10 -575 0
19 -575 0
-6 -10 -20 576 0
6 -576 0
10 -576 0
20 -576 0
-6 -10 -21 577 0
6 -577 0
10 -577 0
21 -577 0
-6 -10 -22 578 0
6 -578 0
10 -578 0
22 -578 0
-6 -10 -23 579 0
6 -579 0
10 -579 0
23 -579 0
-6 -10 -24 580 0
6 -580 0
10 -580 0
24 -580 0
-6 -10 -25 581 0
6 -581 0
10 -581 0
25 -581 0
-6 -10 -26 582 0
6 -582 0
10 -582 0
26 -582 0
-6 -10 -27 583 0
6 -583 0
10 -583 0
27 -583 0
-6 -11 584 0
6 -584 0
11 -584 0
-6 -11 -19 585 0
6 -585 0
11 -585 0
19 -585 0
-6 -11 -20 586 0
6 -586 0
11 -586 0
20 -586 0
-6 -11 -21 587 0
6 -587 0
11 -587 0
21 -587 0
-6 -11 -22 588 0
6 -588 0
11 -588 0
22 -588 0
-6 -11 -23 589 0
6 -589 0
11 -589 0
23 -589 0
-6 -11 -24 590 0
6 -590 0
11 -590 0
24 -590 0
-6 -11 -25 591 0
6 -591 0
11 -591 0
25 -591 0
-6 -11 -26 592 0
6 -592 0
11 -592 0
26 -592 0
-6 -11 -27 593 0
6 -593 0
11 -593 0
27 -593 0
-6 -12 594 0
6 -594 0
12 -594 0
-6 -12 -19 595 0
6 -595 0
12 -595 0
19 -595 0
-6 -12 -20 596 0
6 -596 0
12 -596 0
20 -596 0
-6 -12 -21 597 0
6 -597 0
12 -597 0
21 -597 0
-6 -12 -22 598 0
6 -598 0
12 -598 0
22 -598 0
-6 -12 -23 599 0
6 -599 0
12 -599 0
23 -599 0
-6 -12 -24 600 0
6 -600 0
12 -600 0
24 -600 0
-6 -12 -25 601 0
6 -601 0
12 -601 0
25 -601 0
-6 -12 -26 602 0
6 -602 0
12 -602 0
26 -602 0
-6 -12 -27 603 0
6 -603 0
12 -603 0
27 -603 0
-6 -13 604 0
6 -604 0
13 -604 0
-6 -13 -19 605 0
6 -605 0
13 -605 0
19 -605 0
-6 -13 -20 606 0
6 -606 0
13 -606 0
20 -606 0
-6 -13 -21 607 0
6 -607 0
13 -607 0
21 -607 0
-6 -13 -22 608 0
6 -608 0
13 -608 0
22 -608 0
-6 -13 -23 609 0
6 -609 0
13 -609 0
23 -609 0
-6 -13 -24 610 0
6 -610 0
13 -610 0
24 -610 0
-6 -13 -25 611 0
6 -611 0
13 -611 0
25 -611 0
-6 -13 -26 612 0
6 -612 0
13 -612 0
26 -612 0
-6 -13 -27 613 0
6 -613 0
13 -613 0
27 -613 0
-6 -14 614 0
6 -614 0
14 -614 0
-6 -14 -19 615 0
6 -615 0
14 -615 0
19 -615 0
-6 -14 -20 616 0
6 -616 0
14 -616 0
20 -616 0
-6 -14 -21 617 0
6 -617 0
14 -617 0
21 -617 0
-6 -14 -22 618 0
6 -618 0
14 -618 0
22 -618 0
-6 -14 -23 619 0
6 -619 0
14 -619 0
23 -619 0
-6 -14 -24 620 0
6 -620 0
14 -620 0
24 -620 0
-6 -14 -25 621 0
6 -621 0
14 -621 0
25 -621 0
-6 -14 -26 622 0
6 -622 0
14 -622 0
26 -622 0
-6 -14 -27 623 0
6 -623 0
14 -623 0
27 -623 0
-6 -15 624 0
6 -624 0
15 -624 0
-6 -15 -19 625 0
6 -625 0
15 -625 0
19 -625 0
-6 -15 -20 626 0
6 -626 0
15 -626 0
20 -626 0
-6 -15 -21 627 0
6 -627 0
15 -627 0
21 -627 0
-6 -15 -22 628 0
6 -628 0
15 -628 0
22 -628 0
-6 -15 -23 629 0
6 -629 0
15 -629 0
23 -629 0
-6 -15 -24 630 0
6 -630 0
15 -630 0
24 -630 0
-6 -15 -25 631 0
6 -631 0
15 -631 0
25 -631 0
-6 -15 -26 632 0
6 -632 0
15 -632 0
26 -632 0
-6 -15 -27 633 0
6 -633 0
15 -633 0
27 -633 0
-6 -16 634 0
6 -634 0
16 -634 0
-6 -16 -19 635 0
6 -635 0
16 -635 0
19 -635 0
-6 -16 -20 636 0
6 -636 0
16 -636 0
20 -636 0
-6 -16 -21 637 0
6 -637 0
16 -637 0
21 -637 0
-6 -16 -22 638 0
6 -638 0
16 -638 0
22 -638 0
-6 -16 -23 639 0
6 -639 0
16 -639 0
23 -639 0
-6 -16 -24 640 0
6 -640 0
16 -640 0
24 -640 0
-6 -16 -25 641 0
6 -641 0
16 -641 0
25 -641 0
-6 -16 -26 642 0
6 -642 0
16 -642 0
26 -642 0
-6 -16 -27 643 0
6 -643 0
16 -643 0
27 -643 0
-6 -17 644 0
6 -644 0
17 -644 0
-6 -17 -19 645 0
6 -645 0
17 -645 0
19 -645 0
-6 -17 -20 646 0
6 -646 0
17 -646 0
20 -646 0
-6 -17 -21 647 0
6 -647 0
17 -647 0
21 -647 0
-6 -17 -22 648 0
6 -648 0
17 -648 0
22 -648 0
-6 -17 -23 649 0
6 -649 0
17 -649 0
23 -649 0
-6 -17 -24 650 0
6 -650 0
17 -650 0
24 -650 0
-6 -17 -25 651 0
6 -651 0
17 -651 0
25 -651 0
-6 -17 -26 652 0
6 -652 0
17 -652 0
26 -652 0
-6 -17 -27 653 0
6 -653 0
17 -653 0
27 -653 0
-6 -18 654 0
6 -654 0
18 -654 0
-6 -18 -19 655 0
6 -655 0
18 -655 0
19 -655 0
-6 -18 -20 656 0
6 -656 0
18 -656 0
20 -656 0
-6 -18 -21 657 0
6 -657 0
18 -657 0
21 -657 0
-6 -18 -22 658 0
6 -658 0
18 -658 0
22 -658 0
-6 -18 -23 659 0
6 -659 0
18 -659 0
23 -659 0
-6 -18 -24 660 0
6 -660 0
18 -660 0
24 -660 0
-6 -18 -25 661 0
6 -661 0
18 -661 0
25 -661 0
-6 -18 -26 662 0
6 -662 0
18 -662 0
26 -662 0
-6 -18 -27 663 0
6 -663 0
18 -663 0
27 -663 0
-6 -19 664 0
6 -664 0
19 -664 0
-6 -20 665 0
6 -665 0
20 -665 0
-6 -21 666 0
6 -666 0
21 -666 0
-6 -22 667 0
6 -667 0
22 -667 0
-6 -23 668 0
6 -668 0
23 -668 0
-6 -24 669 0
6 -669 0
24 -669 0
-6 -25 670 0
6 -670 0
25 -670 0
-6 -26 671 0
6 -671 0
26 -671 0
-6 -27 672 0
6 -672 0
27 -672 0
-7 -10 673 0
7 -673 0
10 -673 0
-7 -10 -19 674 0
7 -674 0
10 -674 0
19 -674 0
-7 -10 -20 675 0
7 -675 0
10 -675 0
20 -675 0
-7 -10 -21 676 0
7 -676 0
10 -676 0
21 -676 0
-7 -10 -22 677 0
7 -677 0
10 -677 0
22 -677 0
-7 -10 -23 678 0
7 -678 0
10 -678 0
23 -678 0
-7 -10 -24 679 0
7 -679 0
10 -679 0
24 -679 0
-7 -10 -25 680 0
7 -680 0
10 -680 0
25 -680 0
-7 -10 -26 681 0
7 -681 0
10 -681 0
26 -681 0
-7 -10 -27 682 0
7 -682 0
10 -682 0
27 -682 0
-7 -11 683 0
7 -683 0
11 -683 0
-7 -11 -19 684 0
7 -684 0
11 -684 0
19 -684 0
-7 -11 -20 685 0
7 -685 0
11 -685 0
20 -685 0
-7 -11 -21 686 0
7 -686 0
11 -686 0
21 -686 0
-7 -11 -22 687 0
7 -687 0
11 -687 0
22 -687 0
-7 -11 -23 688 0
7 -688 0
11 -688 0
23 -688 0
-7 -11 -24 689 0
7 -689 0
11 -689 0
24 -689 0
-7 -11 -25 690 0
7 -690 0
11 -690 0
25 -690 0
-7 -11 -26 691 0
7 -691 0
11 -691 0
26 -691 0
-7 -11 -27 692 0
7 -692 0
11 -692 0
27 -692 0
-7 -12 693 0
7 -693 0
12 -693 0
-7 -12 -19 694 0
7 -694 0
12 -694 0
19 -694 0
-7 -12 -20 695 0
7 -695 0
12 -695 0
20 -695 0
-7 -12 -21 696 0
7 -696 0
12 -696 0
21 -696 0
-7 -12 -22 697 0
7 -697 0
12 -697 0
22 -697 0
-7 -12 -23 698 0
7 -698 0
12 -698 0
23 -698 0
-7 -12 -24 699 0
7 -699 0
12 -699 0
24 -699 0
-7 -12 -25 700 0
7 -700 0
12 -700 0
25 -700 0
-7 -12 -26 701 0
7 -701 0
12 -701 0
26 -701 0
-7 -12 -27 702 0
7 -702 0
12 -702 0
27 -702 0
-7 -13 703 0
7 -703 0
13 -703 0
-7 -13 -19 704 0
7 -704 0
13 -704 0
19 -704 0
-7 -13 -20 705 0
7 -705 0
13 -705 0
20 -705 0
-7 -13 -21 706 0
7 -706 0
13 -706 0
21 -706 0
-7 -13 -22 707 0
7 -707 0
13 -707 0
22 -707 0
-7 -13 -23 708 0
7 -708 0
13 -708 0
23 -708 0
-7 -13 -24 709 0
7 -709 0
13 -709 0
24 -709 0
-7 -13 -25 710 0
7 -710 0
13 -710 0
25 -710 0
-7 -13 -26 711 0
7 -711 0
13 -711 0
26 -711 0
-7 -13 -27 712 0
7 -712 0
13 -712 0
27 -712 0
-7 -14 713 0
7 -713 0
14 -713 0
-7 -14 -19 714 0
7 -714 0
14 -714 0
19 -714 0
-7 -14 -20 715 0
7 -715 0
14 -715 0
20 -715 0
-7 -14 -21 716 0
7 -716 0
14 -716 0
21 -716 0
-7 -14 -22 717 0
7 -717 0
14 -717 0
22 -717 0
-7 -14 -23 718 0
7 -718 0
14 -718 0
23 -718 0
-7 -14 -24 719 0
7 -719 0
14 -719 0
24 -719 0
-7 -14 -25 720 0
7 -720 0
14 -720 0
25 -720 0
-7 -14 -26 721 0
7 -721 0
14 -721 0
26 -721 0
-7 -14 -27 722 0
7 -722 0
14 -722 0
27 -722 0
-7 -15 723 0
7 -723 0
15 -723 0
-7 -15 -19 724 0
7 -724 0
15 -724 0
19 -724 0
-7 -15 -20 725 0
7 -725 0
15 -725 0
20 -725 0
-7 -15 -21 726 0
7 -726 0
15 -726 0
21 -726 0
-7 -15 -22 727 0
7 -727 0
15 -727 0
22 -727 0
-7 -15 -23 728 0
7 -728 0
15 -728 0
23 -728 0
-7 -15 -24 729 0
7 -729 0
15 -729 0
24 -729 0
-7 -15 -25 730 0
7 -730 0
15 -730 0
25 -730 0
-7 -15 -26 731 0
7 -731 0
15 -731 0
26 -731 0
-7 -15 -27 732 0
7 -732 0
15 -732 0
27 -732 0
-7 -16 733 0
7 -733 0
16 -733 0
-7 -16 -19 734 0
7 -734 0
16 -734 0
19 -734 0
-7 -16 -20 735 0
7 -735 0
16 -735 0
20 -735 0
-7 -16 -21 736 0
7 -736 0
16 -736 0
21 -736 0
-7 -16 -22 737 0
7 -737 0
16 -737 0
22 -737 0
-7 -16 -23 738 0
7 -738 0
16 -738 0
23 -738 0
-7 -16 -24 739 0
7 -739 0
16 -739 0
24 -739 0
-7 -16 -25 740 0
7 -740 0
16 -740 0
25 -740 0
-7 -16 -26 741 0
7 -741 0
16 -741 0
26 -741 0
-7 -16 -27 742 0
7 -742 0
16 -742 0
27 -742 0
-7 -17 743 0
7 -743 0
17 -743 0
-7 -17 -19 744 0
7 -744 0
17 -744 0
19 -744 0
-7 -17 -20 745 0
7 -745 0
17 -745 0
20 -745 0
-7 -17 -21 746 0
7 -746 0
17 -746 0
21 -746 0
-7 -17 -22 747 0
7 -747 0
17 -747 0
22 -747 0
-7 -17 -23 748 0
7 -748 0
17 -748 0
23 -748 0
-7 -17 -24 749 0
7 -749 0
17 -749 0
24 -749 0
-7 -17 -25 750 0
7 -750 0
17 -750 0
25 -750 0
-7 -17 -26 751 0
7 -751 0
17 -751 0
26 -751 0
-7 -17 -27 752 0
7 -752 0
17 -752 0
27 -752 0
-7 -18 753 0
7 -753 0
18 -753 0
-7 -18 -19 754 0
7 -754 0
18 -754 0
19 -754 0
-7 -18 -20 755 0
7 -755 0
18 -755 0
20 -755 0
-7 -18 -21 756 0
7 -756 0
18 -756 0
21 -756 0
-7 -18 -22 757 0
7 -757 0
18 -757 0
22 -757 0
-7 -18 -23 758 0
7 -758 0
18 -758 0
23 -758 0
-7 -18 -24 759 0
7 -759 0
18 -759 0
24 -759 0
-7 -18 -25 760 0
7 -760 0
18 -760 0
25 -760 0
-7 -18 -26 761 0
7 -761 0
18 -761 0
26 -761 0
-7 -18 -27 762 0
7 -762 0
18 -762 0
27 -762 0
-7 -19 763 0
7 -763 0
19 -763 0
-7 -20 764 0
7 -764 0
20 -764 0
-7 -21 765 0
7 -765 0
21 -765 0
-7 -22 766 0
7 -766 0
22 -766 0
-7 -23 767 0
7 -767 0
23 -767 0
-7 -24 768 0
7 -768 0
24 -768 0
-7 -25 769 0
7 -769 0
25 -769 0
-7 -26 770 0
7 -770 0
26 -770 0
-7 -27 771 0
7 -771 0
27 -771 0
-8 -10 772 0
8 -772 0
10 -772 0
-8 -10 -19 773 0
8 -773 0
10 -773 0
19 -773 0
-8 -10 -20 774 0
8 -774 0
10 -774 0
20 -774 0
-8 -10 -21 775 0
8 -775 0
10 -775 0
21 -775 0
-8 -10 -22 776 0
8 -776 0
10 -776 0
22 -776 0
-8 -10 -23 777 0
8 -777 0
10 -777 0
23 -777 0
-8 -10 -24 778 0
8 -778 0
10 -778 0
24 -778 0
-8 -10 -25 779 0
8 -779 0
10 -779 0
25 -779 0
-8 -10 -26 780 0
8 -780 0
10 -780 0
26 -780 0
-8 -10 -27 781 0
8 -781 0
10 -781 0
27 -781 0
-8 -11 782 0
8 -782 0
11 -782 0
-8 -11 -19 783 0
8 -783 0
11 -783 0
19 -783 0
-8 -11 -20 784 0
8 -784 0
11 -784 0
20 -784 0
-8 -11 -21 785 0
8 -785 0
11 -785 0
21 -785 0
-8 -11 -22 786 0
8 -786 0
11 -786 0
22 -786 0
-8 -11 -23 787 0
8 -787 0
11 -787 0
23 -787 0
-8 -11 -24 788 0
8 -788 0
11 -788 0
24 -788 0
-8 -11 -25 789 0
8 -789 0
11 -789 0
25 -789 0
-8 -11 -26 790 0
8 -790 0
11 -790 0
26 -790 0
-8 -11 -27 791 0
8 -791 0
11 -791 0
27 -791 0
-8 -12 792 0
8 -792 0
12 -792 0
-8 -12 -19 793 0
8 -793 0
12 -793 0
19 -793 0
-8 -12 -20 794 0
8 -794 0
12 -794 0
20 -794 0
-8 -12 -21 795 0
8 -795 0
12 -795 0
21 -795 0
-8 -12 -22 796 0
8 -796 0
12 -796 0
22 -796 0
-8 -12 -23 797 0
8 -797 0
12 -797 0
23 -797 0
-8 -12 -24 798 0
8 -798 0
12 -798 0
24 -798 0
-8 -12 -25 799 0
8 -799 0
12 -799 0
25 -799 0
-8 -12 -26 800 0
8 -800 0
12 -800 0
26 -800 0
-8 -12 -27 801 0
8 -801 0
12 -801 0
27 -801 0
-8 -13 802 0
8 -802 0
13 -802 0
-8 -13 -19 803 0
8 -803 0
13 -803 0
19 -803 0
-8 -13 -20 804 0
8 -804 0
13 -804 0
20 -804 0
-8 -13 -21 805 0
8 -805 0
13 -805 0
21 -805 0
-8 -13 -22 806 0
8 -806 0
13 -806 0
22 -806 0
-8 -13 -23 807 0
8 -807 0
13 -807 0
23 -807 0
-8 -13 -24 808 0
8 -808 0
13 -808 0
24 -808 0
-8 -13 -25 809 0
8 -809 0
13 -809 0
25 -809 0
-8 -13 -26 810 0
8 -810 0
13 -810 0
26 -810 0
-8 -13 -27 811 0
8 -811 0
13 -811 0
27 -811 0
-8 -14 812 0
8 -812 0
14 -812 0
-8 -14 -19 813 0
8 -813 0
14 -813 0
19 -813 0
-8 -14 -20 814 0
8 -814 0
14 -814 0
20 -814 0
-8 -14 -21 815 0
8 -815 0
14 -815 0
21 -815 0
-8 -14 -22 816 0
8 -816 0
14 -816 0
22 -816 0
-8 -14 -23 817 0
8 -817 0
14 -817 0
23 -817 0
-8 -14 -24 818 0
8 -818 0
14 -818 0
24 -818 0
-8 -14 -25 819 0
8 -819 0
14 -819 0
25 -819 0
-8 -14 -26 820 0
8 -820 0
14 -820 0
26 -820 0
-8 -14 -27 821 0
8 -821 0
14 -821 0
27 -821 0
-8 -15 822 0
8 -822 0
15 -822 0
-8 -15 -19 823 0
8 -823 0
15 -823 0
19 -823 0
-8 -15 -20 824 0
8 -824 0
15 -824 0
20 -824 0
-8 -15 -21 825 0
8 -825 0
15 -825 0
21 -825 0
-8 -15 -22 826 0
8 -826 0
15 -826 0
22 -826 0
-8 -15 -23 827 0
8 -827 0
15 -827 0
23 -827 0
-8 -15 -24 828 0
8 -828 0
15 -828 0
24 -828 0
-8 -15 -25 829 0
8 -829 0
15 -829 0
25 -829 0
-8 -15 -26 830 0
8 -830 0
15 -830 0
26 -830 0
-8 -15 -27 831 0
8 -831 0
15 -831 0
27 -831 0
-8 -16 832 0
8 -832 0
16 -832 0
-8 -16 -19 833 0
8 -833 0
16 -833 0
19 -833 0
-8 -16 -20 834 0
8 -834 0
16 -834 0
20 -834 0
-8 -16 -21 835 0
8 -835 0
16 -835 0
21 -835 0
-8 -16 -22 836 0
8 -836 0
16 -836 0
22 -836 0
-8 -16 -23 837 0
8 -837 0
16 -837 0
23 -837 0
-8 -16 -24 838 0
8 -838 0
16 -838 0
24 -838 0
-8 -16 -25 839 0
8 -839 0
16 -839 0
25 -839 0
-8 -16 -26 840 0
8 -840 0
16 -840 0
26 -840 0
-8 -16 -27 841 0
8 -841 0
16 -841 0
27 -841 0
-8 -17 842 0
8 -842 0
17 -842 0
-8 -17 -19 843 0
8 -843 0
17 -843 0
19 -843 0
-8 -17 -20 844 0
8 -844 0
17 -844 0
20 -844 0
-8 -17 -21 845 0
8 -845 0
17 -845 0
21 -845 0
-8 -17 -22 846 0
8 -846 0
17 -846 0
22 -846 0
-8 -17 -23 847 0
8 -847 0
17 -847 0
23 -847 0
-8 -17 -24 848 0
8 -848 0
17 -848 0
24 -848 0
-8 -17 -25 849 0
8 -849 0
17 -849 0
25 -849 0
-8 -17 -26 850 0
8 -850 0
17 -850 0
26 -850 0
-8 -17 -27 851 0
8 -851 0
17 -851 0
27 -851 0
-8 -18 852 0
8 -852 0
18 -852 0
-8 -18 -19 853 0
8 -853 0
18 -853 0
19 -853 0
-8 -18 -20 854 0
8 -854 0
18 -854 0
20 -854 0
-8 -18 -21 855 0
8 -855 0
18 -855 0
21 -855 0
-8 -18 -22 856 0
8 -856 0
18 -856 0
22 -856 0
-8 -18 -23 857 0
8 -857 0
18 -857 0
23 -857 0
-8 -18 -24 858 0
8 -858 0
18 -858 0
24 -858 0
-8 -18 -25 859 0
8 -859 0
18 -859 0
25 -859 0
-8 -18 -26 860 0
8 -860 0
18 -860 0
26 -860 0
-8 -18 -27 861 0
8 -861 0
18 -861 0
27 -861 0
-8 -19 862 0
8 -862 0
19 -862 0
-8 -20 863 0
8 -863 0
20 -863 0
-8 -21 864 0
8 -864 0
21 -864 0
-8 -22 865 0
8 -865 0
22 -865 0
-8 -23 866 0
8 -866 0
23 -866 0
-8 -24 867 0
8 -867 0
24 -867 0
-8 -25 868 0
8 -868 0
25 -868 0
-8 -26 869 0
8 -869 0
26 -869 0
-8 -27 870 0
8 -870 0
27 -870 0
-9 -10 871 0
9 -871 0
10 -871 0
-9 -10 -19 872 0
9 -872 0
10 -872 0
19 -872 0
-9 -10 -20 873 0
9 -873 0
10 -873 0
20 -873 0
-9 -10 -21 874 0
9 -874 0
10 -874 0
21 -874 0
-9 -10 -22 875 0
9 -875 0
10 -875 0
22 -875 0
-9 -10 -23 876 0
9 -876 0
10 -876 0
23 -876 0
-9 -10 -24 877 0
9 -877 0
10 -877 0
24 -877 0
-9 -10 -25 878 0
9 -878 0
10 -878 0
25 -878 0
-9 -10 -26 879 0
9 -879 0
10 -879 0
26 -879 0
-9 -10 -27 880 0
9 -880 0
10 -880 0
27 -880 0
-9 -11 881 0
9 -881 0
11 -881 0
-9 -11 -19 882 0
9 -882 0
11 -882 0
19 -882 0
-9 -11 -20 883 0
9 -883 0
11 -883 0
20 -883 0
-9 -11 -21 884 0
9 -884 0
11 -884 0
21 -884 0
-9 -11 -22 885 0
9 -885 0
11 -885 0
22 -885 0
-9 -11 -23 886 0
9 -886 0
11 -886 0
23 -886 0
-9 -11 -24 887 0
9 -887 0
11 -887 0
24 -887 0
-9 -11 -25 888 0
9 -888 0
11 -888 0
25 -888 0
-9 -11 -26 889 0
9 -889 0
11 -889 0
26 -889 0
-9 -11 -27 890 0
9 -890 0
11 -890 0
27 -890 0
-9 -12 891 0
9 -891 0
12 -891 0
-9 -12 -19 892 0
9 -892 0
12 -892 0
19 -892 0
-9 -12 -20 893 0
9 -893 0
12 -893 0
20 -893 0
-9 -12 -21 894 0
9 -894 0
12 -894 0
21 -894 0
-9 -12 -22 895 0
9 -895 0
12 -895 0
22 -895 0
-9 -12 -23 896 0
9 -896 0
12 -896 0
23 -896 0
-9 -12 -24 897 0
9 -897 0
12 -897 0
24 -897 0
-9 -12 -25 898 0
9 -898 0
12 -898 0
25 -898 0
-9 -12 -26 899 0
9 -899 0
12 -899 0
26 -899 0
-9 -12 -27 900 0
9 -900 0
12 -900 0
27 -900 0
-9 -13 901 0
9 -901 0
13 -901 0
-9 -13 -19 902 0
9 -902 0
13 -902 0
19 -902 0
-9 -13 -20 903 0
9 -903 0
13 -903 0
20 -903 0
-9 -13 -21 904 0
9 -904 0
13 -904 0
21 -904 0
-9 -13 -22 905 0
9 -905 0
13 -905 0
22 -905 0
-9 -13 -23 906 0
9 -906 0
13 -906 0
23 -906 0
-9 -13 -24 907 0
9 -907 0
13 -907 0
24 -907 0
-9 -13 -25 908 0
9 -908 0
13 -908 0
25 -908 0
-9 -13 -26 909 0
9 -909 0
13 -909 0
26 -909 0
-9 -13 -27 910 0
9 -910 0
13 -910 0
27 -910 0
-9 -14 911 0
9 -911 0
14 -911 0
-9 -14 -19 912 0
9 -912 0
14 -912 0
19 -912 0
-9 -14 -20 913 0
9 -913 0
14 -913 0
20 -913 0
-9 -14 -21 914 0
9 -914 0
14 -914 0
21 -914 0
-9 -14 -22 915 0
9 -915 0
14 -915 0
22 -915 0
-9 -14 -23 916 0
9 -916 0
14 -916 0
23 -916 0
-9 -14 -24 917 0
9 -917 0
14 -917 0
24 -917 0
-9 -14 -25 918 0
9 -918 0
14 -918 0
25 -918 0
-9 -14 -26 919 0
9 -919 0
14 -919 0
26 -919 0
-9 -14 -27 920 0
9 -920 0
14 -920 0
27 -920 0
-9 -15 921 0
9 -921 0
15 -921 0
-9 -15 -19 922 0
9 -922 0
15 -922 0
19 -922 0
-9 -15 -20 923 0
9 -923 0
15 -923 0
20 -923 0
-9 -15 -21 924 0
9 -924 0
15 -924 0
21 -924 0
-9 -15 -22 925 0
9 -925 0
15 -925 0
22 -925 0
-9 -15 -23 926 0
9 -926 0
15 -926 0
23 -926 0
-9 -15 -24 927 0
9 -927 0
15 -927 0
24 -927 0
-9 -15 -25 928 0
9 -928 0
15 -928 0
25 -928 0
-9 -15 -26 929 0
9 -929 0
15 -929 0
26 -929 0
-9 -15 -27 930 0
9 -930 0
15 -930 0
27 -930 0
-9 -16 931 0
9 -931 0
16 -931 0
-9 -16 -19 932 0
9 -932 0
16 -932 0
19 -932 0
-9 -16 -20 933 0
9 -933 0
16 -933 0
20 -933 0
-9 -16 -21 934 0
9 -934 0
16 -934 0
21 -934 0
-9 -16 -22 935 0
9 -935 0
16 -935 0
22 -935 0
-9 -16 -23 936 0
9 -936 0
16 -936 0
23 -936 0
-9 -16 -24 937 0
9 -937 0
16 -937 0
24 -937 0
-9 -16 -25 938 0
9 -938 0
16 -938 0
25 -938 0
-9 -16 -26 939 0
9 -939 0
16 -939 0
26 -939 0
-9 -16 -27 940 0
9 -940 0
16 -940 0
27 -940 0
-9 -17 941 0
9 -941 0
17 -941 0
-9 -17 -19 942 0
9 -942 0
17 -942 0
19 -942 0
-9 -17 -20 943 0
9 -943 0
17 -943 0
20 -943 0
-9 -17 -21 944 0
9 -944 0
17 -944 0
21 -944 0
-9 -17 -22 945 0
9 -945 0
17 -945 0
22 -945 0
-9 -17 -23 946 0
9 -946 0
17 -946 0
23 -946 0
-9 -17 -24 947 0
9 -947 0
17 -947 0
24 -947 0
-9 -17 -25 948 0
9 -948 0
17 -948 0
25 -948 0
-9 -17 -26 949 0
9 -949 0
17 -949 0
26 -949 0
-9 -17 -27 950 0
9 -950 0
17 -950 0
27 -950 0
-9 -18 951 0
9 -951 0
18 -951 0
-9 -18 -19 952 0
9 -952 0
18 -952 0
19 -952 0
-9 -18 -20 953 0
9 -953 0
18 -953 0
20 -953 0
-9 -18 -21 954 0
9 -954 0
18 -954 0
21 -954 0
-9 -18 -22 955 0
9 -955 0
18 -955 0
22 -955 0
-9 -18 -23 956 0
9 -956 0
18 -956 0
23 -956 0
-9 -18 -24 957 0
9 -957 0
18 -957 0
24 -957 0
-9 -18 -25 958 0
9 -958 0
18 -958 0
25 -958 0
-9 -18 -26 959 0
9 -959 0
18 -959 0
26 -959 0
-9 -18 -27 960 0
9 -960 0
18 -960 0
27 -960 0
-9 -19 961 0
9 -961 0
19 -961 0
-9 -20 962 0
9 -962 0
20 -962 0
-9 -21 963 0
9 -963 0
21 -963 0
-9 -22 964 0
9 -964 0
22 -964 0
-9 -23 965 0
9 -965 0
23 -965 0
-9 -24 966 0
9 -966 0
24 -966 0
-9 -25 967 0
9 -967 0
25 -967 0
-9 -26 968 0
9 -968 0
26 -968 0
-9 -27 969 0
9 -969 0
27 -969 0
-10 -19 970 0
10 -970 0
19 -970 0
-10 -20 971 0
10 -971 0
20 -971 0
-10 -21 972 0
10 -972 0
21 -972 0
-10 -22 973 0
10 -973 0
22 -973 0
-10 -23 974 0
10 -974 0
23 -974 0
-10 -24 975 0
10 -975 0
24 -975 0
-10 -25 976 0
10 -976 0
25 -976 0
-10 -26 977 0
10 -977 0
26 -977 0
-10 -27 978 0
10 -978 0
27 -978 0
-11 -19 979 0
11 -979 0
19 -979 0
-11 -20 980 0
11 -980 0
20 -980 0
-11 -21 981 0
11 -981 0
21 -981 0
-11 -22 982 0
11 -982 0
22 -982 0
-11 -23 983 0
11 -983 0
23 -983 0
-11 -24 984 0
11 -984 0
24 -984 0
-11 -25 985 0
11 -985 0
25 -985 0
-11 -26 986 0
11 -986 0
26 -986 0
-11 -27 987 0
11 -987 0
27 -987 0
-12 -19 988 0
12 -988 0
19 -988 0
-12 -20 989 0
12 -989 0
20 -989 0
-12 -21 990 0
12 -990 0
21 -990 0
-12 -22 991 0
12 -991 0
22 -991 0
-12 -23 992 0
12 -992 0
23 -992 0
-12 -24 993 0
12 -993 0
24 -993 0
-12 -25 994 0
12 -994 0
25 -994 0
-12 -26 995 0
12 -995 0
26 -995 0
-12 -27 996 0
12 -996 0
27 -996 0
-13 -19 997 0
13 -997 0
19 -997 0
-13 -20 998 0
13 -998 0
20 -998 0
-13 -21 999 0
13 -999 0
21 -999 0
-13 -22 1000 0
13 -1000 0
22 -1000 0
-13 -23 1001 0
13 -1001 0
23 -1001 0
-13 -24 1002 0
13 -1002 0
24 -1002 0
-13 -25 1003 0
13 -1003 0
25 -1003 0
-13 -26 1004 0
13 -1004 0
26 -1004 0
-13 -27 1005 0
13 -1005 0
27 -1005 0
-14 -19 1006 0
14 -1006 0
19 -1006 0
-14 -20 1007 0
14 -1007 0
20 -1007 0
-14 -21 1008 0
14 -1008 0
21 -1008 0
-14 -22 1009 0
14 -1009 0
22 -1009 0
-14 -23 1010 0
14 -1010 0
23 -1010 0
-14 -24 1011 0
14 -1011 0
24 -1011 0
-14 -25 1012 0
14 -1012 0
25 -1012 0
-14 -26 1013 0
14 -1013 0
26 -1013 0
-14 -27 1014 0
14 -1014 0
27 -1014 0
-15 -19 1015 0
15 -1015 0
19 -1015 0
-15 -20 1016 0
15 -1016 0
20 -1016 0
-15 -21 1017 0
15 -1017 0
21 -1017 0
-15 -22 1018 0
15 -1018 0
22 -1018 0
-15 -23 1019 0
15 -1019 0
23 -1019 0
-15 -24 1020 0
15 -1020 0
24 -1020 0
-15 -25 1021 0
15 -1021 0
25 -1021 0
-15 -26 1022 0
15 -1022 0
26 -1022 0
-15 -27 1023 0
15 -1023 0
27 -1023 0
-16 -19 1024 0
16 -1024 0
19 -1024 0
-16 -20 1025 0
16 -1025 0
20 -1025 0
-16 -21 1026 0
16 -1026 0
21 -1026 0
-16 -22 1027 0
16 -1027 0
22 -1027 0
-16 -23 1028 0
16 -1028 0
23 -1028 0
-16 -24 1029 0
16 -1029 0
24 -1029 0
-16 -25 1030 0
16 -1030 0
25 -1030 0
-16 -26 1031 0
16 -1031 0
26 -1031 0
-16 -27 1032 0
16 -1032 0
27 -1032 0
-17 -19 1033 0
17 -1033 0
19 -1033 0
-17 -20 1034 0
17 -1034 0
20 -1034 0
-17 -21 1035 0
17 -1035 0
21 -1035 0
-17 -22 1036 0
17 -1036 0
22 -1036 0
-17 -23 1037 0
17 -1037 0
23 -1037 0
-17 -24 1038 0
17 -1038 0
24 -1038 0
-17 -25 1039 0
17 -1039 0
25 -1039 0
-17 -26 1040 0
17 -1040 0
26 -1040 0
-17 -27 1041 0
17 -1041 0
27 -1041 0
-18 -19 1042 0
18 -1042 0
19 -1042 0
-18 -20 1043 0
18 -1043 0
20 -1043 0
-18 -21 1044 0
18 -1044 0
21 -1044 0
-18 -22 1045 0
18 -1045 0
22 -1045 0
-18 -23 1046 0
18 -1046 0
23 -1046 0
-18 -24 1047 0
18 -1047 0
24 -1047 0
-18 -25 1048 0
18 -1048 0
25 -1048 0
-18 -26 1049 0
18 -1049 0
26 -1049 0
-18 -27 1050 0
18 -1050 0
27 -1050 0
-28 -54 1051 0
28 -1051 0
54 -1051 0
-28 -55 1052 0
28 -1052 0
55 -1052 0
-28 -56 1053 0
28 -1053 0
56 -1053 0
-28 -57 1054 0
28 -1054 0
57 -1054 0
-28 -58 1055 0
28 -1055 0
58 -1055 0
-28 -59 1056 0
28 -1056 0
59 -1056 0
-28 -60 1057 0
28 -1057 0
60 -1057 0
-28 -61 1058 0
28 -1058 0
61 -1058 0
-28 -62 1059 0
28 -1059 0
62 -1059 0
-28 -63 1060 0
28 -1060 0
63 -1060 0
-28 -64 1061 0
28 -1061 0
64 -1061 0
-28 -65 1062 0
28 -1062 0
65 -1062 0
-28 -66 1063 0
28 -1063 0
66 -1063 0
-28 -67 1064 0
28 -1064 0
67 -1064 0
-28 -68 1065 0
28 -1065 0
68 -1065 0
-28 -69 1066 0
28 -1066 0
69 -1066 0
-28 -70 1067 0
28 -1067 0
70 -1067 0
-28 -71 1068 0
28 -1068 0
71 -1068 0
-28 -72 1069 0
28 -1069 0
72 -1069 0
-28 -73 1070 0
28 -1070 0
73 -1070 0
-28 -74 1071 0
28 -1071 0
74 -1071 0
-28 -75 1072 0
28 -1072 0
75 -1072 0
-28 -76 1073 0
28 -1073 0
76 -1073 0
-28 -77 1074 0
28 -1074 0
77 -1074 0
-28 -78 1075 0
28 -1075 0
78 -1075 0
-29 -54 1076 0
29 -1076 0
54 -1076 0
-29 -55 1077 0
29 -1077 0
55 -1077 0
-29 -56 1078 0
29 -1078 0
56 -1078 0
-29 -57 1079 0
29 -1079 0
57 -1079 0
-29 -58 1080 0
29 -1080 0
58 -1080 0
-29 -59 1081 0
29 -1081 0
59 -1081 0
-29 -60 1082 0
29 -1082 0
60 -1082 0
-29 -61 1083 0
29 -1083 0
61 -1083 0
-29 -62 1084 0
29 -1084 0
62 -1084 0
-29 -63 1085 0
29 -1085 0
63 -1085 0
-29 -64 1086 0
29 -1086 0
64 -1086 0
-29 -65 1087 0
29 -1087 0
65 -1087 0
-29 -66 1088 0
29 -1088 0
66 -1088 0
-29 -67 1089 0
29 -1089 0
67 -1089 0
-29 -68 1090 0
29 -1090 0
68 -1090 0
-29 -69 1091 0
29 -1091 0
69 -1091 0
-29 -70 1092 0
29 -1092 0
70 -1092 0
-29 -71 1093 0
29 -1093 0
71 -1093 0
-29 -72 1094 0
29 -1094 0
72 -1094 0
-29 -73 1095 0
29 -1095 0
73 -1095 0
-29 -74 1096 0
29 -1096 0
74 -1096 0
-29 -75 1097 0
29 -1097 0
75 -1097 0
-29 -76 1098 0
29 -1098 0
76 -1098 0
-29 -77 1099 0
29 -1099 0
77 -1099 0
-29 -78 1100 0
29 -1100 0
78 -1100 0
-30 -54 1101 0
30 -1101 0
54 -1101 0
-30 -55 1102 0
30 -1102 0
55 -1102 0
-30 -56 1103 0
30 -1103 0
56 -1103 0
-30 -57 1104 0
30 -1104 0
57 -1104 0
-30 -58 1105 0
30 -1105 0
58 -1105 0
-30 -59 1106 0
30 -1106 0
59 -1106 0
-30 -60 1107 0
30 -1107 0
60 -1107 0
-30 -61 1108 0
30 -1108 0
61 -1108 0
-30 -62 1109 0
30 -1109 0
62 -1109 0
-30 -63 1110 0
30 -1110 0
63 -1110 0
-30 -64 1111 0
30 -1111 0
64 -1111 0
-30 -65 1112 0
30 -1112 0
65 -1112 0
-30 -66 1113 0
30 -1113 0
66 -1113 0
-30 -67 1114 0
30 -1114 0
67 -1114 0
-30 -68 1115 0
30 -1115 0
68 -1115 0
-30 -69 1116 0
30 -1116 0
69 -1116 0
-30 -70 1117 0
30 -1117 0
70 -1117 0
-30 -71 1118 0
30 -1118 0
71 -1118 0
-30 -72 1119 0
30 -1119 0
72 -1119 0
-30 -73 1120 0
30 -1120 0
73 -1120 0
-30 -74 1121 0
30 -1121 0
74 -1121 0
-30 -75 1122 0
30 -1122 0
75 -1122 0
-30 -76 1123 0
30 -1123 0
76 -1123 0
-30 -77 1124 0
30 -1124 0
77 -1124 0
-30 -78 1125 0
30 -1125 0
78 -1125 0
-31 -54 1126 0
31 -1126 0
54 -1126 0
-31 -55 1127 0
31 -1127 0
55 -1127 0
-31 -56 1128 0
31 -1128 0
56 -1128 0
-31 -57 1129 0
31 -1129 0
57 -1129 0
-31 -58 1130 0
31 -1130 0
58 -1130 0
-31 -59 1131 0
31 -1131 0
59 -1131 0
-31 -60 1132 0
31 -1132 0
60 -1132 0
-31 -61 1133 0
31 -1133 0
61 -1133 0
-31 -62 1134 0
31 -1134 0
62 -1134 0
-31 -63 1135 0
31 -1135 0
63 -1135 0
-31 -64 1136 0
31 -1136 0
64 -1136 0
-31 -65 1137 0
31 -1137 0
65 -1137 0
-31 -66 1138 0
31 -1138 0
66 -1138 0
-31 -67 1139 0
31 -1139 0
67 -1139 0
-31 -68 1140 0
31 -1140 0
68 -1140 0
-31 -69 1141 0
31 -1141 0
69 -1141 0
-31 -70 1142 0
31 -1142 0
70 -1142 0
-31 -71 1143 0
31 -1143 0
71 -1143 0
-31 -72 1144 0
31 -1144 0
72 -1144 0
-31 -73 1145 0
31 -1145 0
73 -1145 0
-31 -74 1146 0
31 -1146 0
74 -1146 0
-31 -75 1147 0
31 -1147 0
75 -1147 0
-31 -76 1148 0
31 -1148 0
76 -1148 0
-31 -77 1149 0
31 -1149 0
77 -1149 0
-31 -78 1150 0
31 -1150 0
78 -1150 0
-32 -54 1151 0
32 -1151 0
54 -1151 0
-32 -55 1152 0
32 -1152 0
55 -1152 0
-32 -56 1153 0
32 -1153 0
56 -1153 0
-32 -57 1154 0
32 -1154 0
57 -1154 0
-32 -58 1155 0
32 -1155 0
58 -1155 0
-32 -59 1156 0
32 -1156 0
59 -1156 0
-32 -60 1157 0
32 -1157 0
60 -1157 0
-32 -61 1158 0
32 -1158 0
61 -1158 0
-32 -62 1159 0
32 -1159 0
62 -1159 0
-32 -63 1160 0
32 -1160 0
63 -1160 0
-32 -64 1161 0
32 -1161 0
64 -1161 0
-32 -65 1162 0
32 -1162 0
65 -1162 0
-32 -66 1163 0
32 -1163 0
66 -1163 0
-32 -67 1164 0
32 -1164 0
67 -1164 0
-32 -68 1165 0
32 -1165 0
68 -1165 0
-32 -69 1166 0
32 -1166 0
69 -1166 0
-32 -70 1167 0
32 -1167 0
70 -1167 0
-32 -71 1168 0
32 -1168 0
71 -1168 0
-32 -72 1169 0
32 -1169 0
72 -1169 0
-32 -73 1170 0
32 -1170 0
73 -1170 0
-32 -74 1171 0
32 -1171 0
74 -1171 0
-32 -75 1172 0
32 -1172 0
75 -1172 0
-32 -76 1173 0
32 -1173 0
76 -1173 0
-32 -77 1174 0
32 -1174 0
77 -1174 0
-32 -78 1175 0
32 -1175 0
78 -1175 0
-33 -54 1176 0
33 -1176 0
54 -1176 0
-33 -55 1177 0
33 -1177 0
55 -1177 0
-33 -56 1178 0
33 -1178 0
56 -1178 0
-33 -57 1179 0
33 -1179 0
57 -1179 0
-33 -58 1180 0
33 -1180 0
58 -1180 0
-33 -59 1181 0
33 -1181 0
59 -1181 0
-33 -60 1182 0
33 -1182 0
60 -1182 0
-33 -61 1183 0
33 -1183 0
61 -1183 0
-33 -62 1184 0
33 -1184 0
62 -1184 0
-33 -63 1185 0
33 -1185 0
63 -1185 0
-33 -64 1186 0
33 -1186 0
64 -1186 0
-33 -65 1187 0
33 -1187 0
65 -1187 0
-33 -66 1188 0
33 -1188 0
66 -1188 0
-33 -67 1189 0
33 -1189 0
67 -1189 0
-33 -68 1190 0
33 -1190 0
68 -1190 0
-33 -69 1191 0
33 -1191 0
69 -1191 0
-33 -70 1192 0
33 -1192 0
70 -1192 0
-33 -71 1193 0
33 -1193 0
71 -1193 0
-33 -72 1194 0
33 -1194 0
72 -1194 0
-33 -73 1195 0
33 -1195 0
73 -1195 0
-33 -74 1196 0
33 -1196 0
74 -1196 0
-33 -75 1197 0
33 -1197 0
75 -1197 0
-33 -76 1198 0
33 -1198 0
76 -1198 0
-33 -77 1199 0
33 -1199 0
77 -1199 0
-33 -78 1200 0
33 -1200 0
78 -1200 0
-34 -54 1201 0
34 -1201 0
54 -1201 0
-34 -55 1202 0
34 -1202 0
55 -1202 0
-34 -56 1203 0
34 -1203 0
56 -1203 0
-34 -57 1204 0
34 -1204 0
57 -1204 0
-34 -58 1205 0
34 -1205 0
58 -1205 0
-34 -59 1206 0
34 -1206 0
59 -1206 0
-34 -60 1207 0
34 -1207 0
60 -1207 0
-34 -61 1208 0
34 -1208 0
61 -1208 0
-34 -62 1209 0
34 -1209 0
62 -1209 0
-34 -63 1210 0
34 -1210 0
63 -1210 0
-34 -64 1211 0
34 -1211 0
64 -1211 0
-34 -65 1212 0
34 -1212 0
65 -1212 0
-34 -66 1213 0
34 -1213 0
66 -1213 0
-34 -67 1214 0
34 -1214 0
67 -1214 0
-34 -68 1215 0
34 -1215 0
68 -1215 0
-34 -69 1216 0
34 -1216 0
69 -1216 0
-34 -70 1217 0
34 -1217 0
70 -1217 0
-34 -71 1218 0
34 -1218 0
71 -1218 0
-34 -72 1219 0
34 -1219 0
72 -1219 0
-34 -73 1220 0
34 -1220 0
73 -1220 0
-34 -74 1221 0
34 -1221 0
74 -1221 0
-34 -75 1222 0
34 -1222 0
75 -1222 0
-34 -76 1223 0
34 -1223 0
76 -1223 0
-34 -77 1224 0
34 -1224 0
77 -1224 0
-34 -78 1225 0
34 -1225 0
78 -1225 0
-35 -54 1226 0
35 -1226 0
54 -1226 0
-35 -55 1227 0
35 -1227 0
55 -1227 0
-35 -56 1228 0
35 -1228 0
56 -1228 0
-35 -57 1229 0
35 -1229 0
57 -1229 0
-35 -58 1230 0
35 -1230 0
58 -1230 0
-35 -59 1231 0
35 -1231 0
59 -1231 0
-35 -60 1232 0
35 -1232 0
60 -1232 0
-35 -61 1233 0
35 -1233 0
61 -1233 0
-35 -62 1234 0
35 -1234 0
62 -1234 0
-35 -63 1235 0
35 -1235 0
63 -1235 0
-35 -64 1236 0
35 -1236 0
64 -1236 0
-35 -65 1237 0
35 -1237 0
65 -1237 0
-35 -66 1238 0
35 -1238 0
66 -1238 0
-35 -67 1239 0
35 -1239 0
67 -1239 0
-35 -68 1240 0
35 -1240 0
68 -1240 0
-35 -69 1241 0
35 -1241 0
69 -1241 0
-35 -70 1242 0
35 -1242 0
70 -1242 0
-35 -71 1243 0
35 -1243 0
71 -1243 0
-35 -72 1244 0
35 -1244 0
72 -1244 0
-35 -73 1245 0
35 -1245 0
73 -1245 0
-35 -74 1246 0
35 -1246 0
74 -1246 0
-35 -75 1247 0
35 -1247 0
75 -1247 0
-35 -76 1248 0
35 -1248 0
76 -1248 0
-35 -77 1249 0
35 -1249 0
77 -1249 0
-35 -78 1250 0
35 -1250 0
78 -1250 0
-36 -54 1251 0
36 -1251 0
54 -1251 0
-36 -55 1252 0
36 -1252 0
55 -1252 0
-36 -56 1253 0
36 -1253 0
56 -1253 0
-36 -57 1254 0
36 -1254 0
57 -1254 0
-36 -58 1255 0
36 -1255 0
58 -1255 0
-36 -59 1256 0
36 -1256 0
59 -1256 0
-36 -60 1257 0
36 -1257 0
60 -1257 0
-36 -61 1258 0
36 -1258 0
61 -1258 0
-36 -62 1259 0
36 -1259 0
62 -1259 0
-36 -63 1260 0
36 -1260 0
63 -1260 0
-36 -64 1261 0
36 -1261 0
64 -1261 0
-36 -65 1262 0
36 -1262 0
65 -1262 0
-36 -66 1263 0
36 -1263 0
66 -1263 0
-36 -67 1264 0
36 -1264 0
67 -1264 0
-36 -68 1265 0
36 -1265 0
68 -1265 0
-36 -69 1266 0
36 -1266 0
69 -1266 0
-36 -70 1267 0
36 -1267 0
70 -1267 0
-36 -71 1268 0
36 -1268 0
71 -1268 0
-36 -72 1269 0
36 -1269 0
72 -1269 0
-36 -73 1270 0
36 -1270 0
73 -1270 0
-36 -74 1271 0
36 -1271 0
74 -1271 0
-36 -75 1272 0
36 -1272 0
75 -1272 0
-36 -76 1273 0
36 -1273 0
76 -1273 0
-36 -77 1274 0
36 -1274 0
77 -1274 0
-36 -78 1275 0
36 -1275 0
78 -1275 0
-37 -54 1276 0
37 -1276 0
54 -1276 0
-37 -55 1277 0
37 -1277 0
55 -1277 0
-37 -56 1278 0
37 -1278 0
56 -1278 0
-37 -57 1279 0
37 -1279 0
57 -1279 0
-37 -58 1280 0
37 -1280 0
58 -1280 0
-37 -59 1281 0
37 -1281 0
59 -1281 0
-37 -60 1282 0
37 -1282 0
60 -1282 0
-37 -61 1283 0
37 -1283 0
61 -1283 0
-37 -62 1284 0
37 -1284 0
62 -1284 0
-37 -63 1285 0
37 -1285 0
63 -1285 0
-37 -64 1286 0
37 -1286 0
64 -1286 0
-37 -65 1287 0
37 -1287 0
65 -1287 0
-37 -66 1288 0
37 -1288 0
66 -1288 0
-37 -67 1289 0
37 -1289 0
67 -1289 0
-37 -68 1290 0
37 -1290 0
68 -1290 0
-37 -69 1291 0
37 -1291 0
69 -1291 0
-37 -70 1292 0
37 -1292 0
70 -1292 0
-37 -71 1293 0
37 -1293 0
71 -1293 0
-37 -72 1294 0
37 -1294 0
72 -1294 0
-37 -73 1295 0
37 -1295 0
73 -1295 0
-37 -74 1296 0
37 -1296 0
74 -1296 0
-37 -75 1297 0
37 -1297 0
75 -1297 0
-37 -76 1298 0
37 -1298 0
76 -1298 0
-37 -77 1299 0
37 -1299 0
77 -1299 0
-37 -78 1300 0
37 -1300 0
78 -1300 0
-38 -54 1301 0
38 -1301 0
54 -1301 0
-38 -55 1302 0
38 -1302 0
55 -1302 0
-38 -56 1303 0
38 -1303 0
56 -1303 0
-38 -57 1304 0
38 -1304 0
57 -1304 0
-38 -58 1305 0
38 -1305 0
58 -1305 0
-38 -59 1306 0
38 -1306 0
59 -1306 0
-38 -60 1307 0
38 -1307 0
60 -1307 0
-38 -61 1308 0
38 -1308 0
61 -1308 0
-38 -62 1309 0
38 -1309 0
62 -1309 0
-38 -63 1310 0
38 -1310 0
63 -1310 0
-38 -64 1311 0
38 -1311 0
64 -1311 0
-38 -65 1312 0
38 -1312 0
65 -1312 0
-38 -66 1313 0
38 -1313 0
66 -1313 0
-38 -67 1314 0
38 -1314 0
67 -1314 0
-38 -68 1315 0
38 -1315 0
68 -1315 0
-38 -69 1316 0
38 -1316 0
69 -1316 0
-38 -70 1317 0
38 -1317 0
70 -1317 0
-38 -71 1318 0
38 -1318 0
71 -1318 0
-38 -72 1319 0
38 -1319 0
72 -1319 0
-38 -73 1320 0
38 -1320 0
73 -1320 0
-38 -74 1321 0
38 -1321 0
74 -1321 0
-38 -75 1322 0
38 -1322 0
75 -1322 0
-38 -76 1323 0
38 -1323 0
76 -1323 0
-38 -77 1324 0
38 -1324 0
77 -1324 0
-38 -78 1325 0
38 -1325 0
78 -1325 0
-39 -54 1326 0
39 -1326 0
54 -1326 0
-39 -55 1327 0
39 -1327 0
55 -1327 0
-39 -56 1328 0
39 -1328 0
56 -1328 0
-39 -57 1329 0
39 -1329 0
57 -1329 0
-39 -58 1330 0
39 -1330 0
58 -1330 0
-39 -59 1331 0
39 -1331 0
59 -1331 0
-39 -60 1332 0
39 -1332 0
60 -1332 0
-39 -61 1333 0
39 -1333 0
61 -1333 0
-39 -62 1334 0
39 -1334 0
62 -1334 0
-39 -63 1335 0
39 -1335 0
63 -1335 0
-39 -64 1336 0
39 -1336 0
64 -1336 0
-39 -65 1337 0
39 -1337 0
65 -1337 0
-39 -66 1338 0
39 -1338 0
66 -1338 0
-39 -67 1339 0
39 -1339 0
67 -1339 0
-39 -68 1340 0
39 -1340 0
68 -1340 0
-39 -69 1341 0
39 -1341 0
69 -1341 0
-39 -70 1342 0
39 -1342 0
70 -1342 0
-39 -71 1343 0
39 -1343 0
71 -1343 0
-39 -72 1344 0
39 -1344 0
72 -1344 0
-39 -73 1345 0
39 -1345 0
73 -1345 0
-39 -74 1346 0
39 -1346 0
74 -1346 0
-39 -75 1347 0
39 -1347 0
75 -1347 0
-39 -76 1348 0
39 -1348 0
76 -1348 0
-39 -77 1349 0
39 -1349 0
77 -1349 0
-39 -78 1350 0
39 -1350 0
78 -1350 0
-40 -54 1351 0
40 -1351 0
54 -1351 0
-40 -55 1352 0
40 -1352 0
55 -1352 0
-40 -56 1353 0
40 -1353 0
56 -1353 0
-40 -57 1354 0
40 -1354 0
57 -1354 0
-40 -58 1355 0
40 -1355 0
58 -1355 0
-40 -59 1356 0
40 -1356 0
59 -1356 0
-40 -60 1357 0
40 -1357 0
60 -1357 0
-40 -61 1358 0
40 -1358 0
61 -1358 0
-40 -62 1359 0
40 -1359 0
62 -1359 0
-40 -63 1360 0
40 -1360 0
63 -1360 0
-40 -64 1361 0
40 -1361 0
64 -1361 0
-40 -65 1362 0
40 -1362 0
65 -1362 0
-40 -66 1363 0
40 -1363 0
66 -1363 0
-40 -67 1364 0
40 -1364 0
67 -1364 0
-40 -68 1365 0
40 -1365 0
68 -1365 0
-40 -69 1366 0
40 -1366 0
69 -1366 0
-40 -70 1367 0
40 -1367 0
70 -1367 0
-40 -71 1368 0
40 -1368 0
71 -1368 0
-40 -72 1369 0
40 -1369 0
72 -1369 0
-40 -73 1370 0
40 -1370 0
73 -1370 0
-40 -74 1371 0
40 -1371 0
74 -1371 0
-40 -75 1372 0
40 -1372 0
75 -1372 0
-40 -76 1373 0
40 -1373 0
76 -1373 0
-40 -77 1374 0
40 -1374 0
77 -1374 0
-40 -78 1375 0
40 -1375 0
78 -1375 0
-41 -54 1376 0
41 -1376 0
54 -1376 0
-41 -55 1377 0
41 -1377 0
55 -1377 0
-41 -56 1378 0
41 -1378 0
56 -1378 0
-41 -57 1379 0
41 -1379 0
57 -1379 0
-41 -58 1380 0
41 -1380 0
58 -1380 0
-41 -59 1381 0
41 -1381 0
59 -1381 0
-41 -60 1382 0
41 -1382 0
60 -1382 0
-41 -61 1383 0
41 -1383 0
61 -1383 0
-41 -62 1384 0
41 -1384 0
62 -1384 0
-41 -63 1385 0
41 -1385 0
63 -1385 0
-41 -64 1386 0
41 -1386 0
64 -1386 0
-41 -65 1387 0
41 -1387 0
65 -1387 0
-41 -66 1388 0
41 -1388 0
66 -1388 0
-41 -67 1389 0
41 -1389 0
67 -1389 0
-41 -68 1390 0
41 -1390 0
68 -1390 0
-41 -69 1391 0
41 -1391 0
69 -1391 0
-41 -70 1392 0
41 -1392 0
70 -1392 0
-41 -71 1393 0
41 -1393 0
71 -1393 0
-41 -72 1394 0
41 -1394 0
72 -1394 0
-41 -73 1395 0
41 -1395 0
73 -1395 0
-41 -74 1396 0
41 -1396 0
74 -1396 0
-41 -75 1397 0
41 -1397 0
75 -1397 0
-41 -76 1398 0
41 -1398 0
76 -1398 0
-41 -77 1399 0
41 -1399 0
77 -1399 0
-41 -78 1400 0
41 -1400 0
78 -1400 0
-42 -54 1401 0
42 -1401 0
54 -1401 0
-42 -55 1402 0
42 -1402 0
55 -1402 0
-42 -56 1403 0
42 -1403 0
56 -1403 0
-42 -57 1404 0
42 -1404 0
57 -1404 0
-42 -58 1405 0
42 -1405 0
58 -1405 0
-42 -59 1406 0
42 -1406 0
59 -1406 0
-42 -60 1407 0
42 -1407 0
60 -1407 0
-42 -61 1408 0
42 -1408 0
61 -1408 0
-42 -62 1409 0
42 -1409 0
62 -1409 0
-42 -63 1410 0
42 -1410 0
63 -1410 0
-42 -64 1411 0
42 -1411 0
64 -1411 0
-42 -65 1412 0
42 -1412 0
65 -1412 0
-42 -66 1413 0
42 -1413 0
66 -1413 0
-42 -67 1414 0
42 -1414 0
67 -1414 0
-42 -68 1415 0
42 -1415 0
68 -1415 0
-42 -69 1416 0
42 -1416 0
69 -1416 0
-42 -70 1417 0
42 -1417 0
70 -1417 0
-42 -71 1418 0
42 -1418 0
71 -1418 0
-42 -72 1419 0
42 -1419 0
72 -1419 0
-42 -73 1420 0
42 -1420 0
73 -1420 0
-42 -74 1421 0
42 -1421 0
74 -1421 0
-42 -75 1422 0
42 -1422 0
75 -1422 0
-42 -76 1423 0
42 -1423 0
76 -1423 0
-42 -77 1424 0
42 -1424 0
77 -1424 0
-42 -78 1425 0
42 -1425 0
78 -1425 0
-43 -54 1426 0
43 -1426 0
54 -1426 0
-43 -55 1427 0
43 -1427 0
55 -1427 0
-43 -56 1428 0
43 -1428 0
56 -1428 0
-43 -57 1429 0
43 -1429 0
57 -1429 0
-43 -58 1430 0
43 -1430 0
58 -1430 0
-43 -59 1431 0
43 -1431 0
59 -1431 0
-43 -60 1432 0
43 -1432 0
60 -1432 0
-43 -61 1433 0
43 -1433 0
61 -1433 0
-43 -62 1434 0
43 -1434 0
62 -1434 0
-43 -63 1435 0
43 -1435 0
63 -1435 0
-43 -64 1436 0
43 -1436 0
64 -1436 0
-43 -65 1437 0
43 -1437 0
65 -1437 0
-43 -66 1438 0
43 -1438 0
66 -1438 0
-43 -67 1439 0
43 -1439 0
67 -1439 0
-43 -68 1440 0
43 -1440 0
68 -1440 0
-43 -69 1441 0
43 -1441 0
69 -1441 0
-43 -70 1442 0
43 -1442 0
70 -1442 0
-43 -71 1443 0
43 -1443 0
71 -1443 0
-43 -72 1444 0
43 -1444 0
72 -1444 0
-43 -73 1445 0
43 -1445 0
73 -1445 0
-43 -74 1446 0
43 -1446 0
74 -1446 0
-43 -75 1447 0
43 -1447 0
75 -1447 0
-43 -76 1448 0
43 -1448 0
76 -1448 0
-43 -77 1449 0
43 -1449 0
77 -1449 0
-43 -78 1450 0
43 -1450 0
78 -1450 0
-44 -54 1451 0
44 -1451 0
54 -1451 0
-44 -55 1452 0
44 -1452 0
55 -1452 0
-44 -56 1453 0
44 -1453 0
56 -1453 0
-44 -57 1454 0
44 -1454 0
57 -1454 0
-44 -58 1455 0
44 -1455 0
58 -1455 0
-44 -59 1456 0
44 -1456 0
59 -1456 0
-44 -60 1457 0
44 -1457 0
60 -1457 0
-44 -61 1458 0
44 -1458 0
61 -1458 0
-44 -62 1459 0
44 -1459 0
62 -1459 0
-44 -63 1460 0
44 -1460 0
63 -1460 0
-44 -64 1461 0
44 -1461 0
64 -1461 0
-44 -65 1462 0
44 -1462 0
65 -1462 0
-44 -66 1463 0
44 -1463 0
66 -1463 0
-44 -67 1464 0
44 -1464 0
67 -1464 0
-44 -68 1465 0
44 -1465 0
68 -1465 0
-44 -69 1466 0
44 -1466 0
69 -1466 0
-44 -70 1467 0
44 -1467 0
70 -1467 0
-44 -71 1468 0
44 -1468 0
71 -1468 0
-44 -72 1469 0
44 -1469 0
72 -1469 0
-44 -73 1470 0
44 -1470 0
73 -1470 0
-44 -74 1471 0
44 -1471 0
74 -1471 0
-44 -75 1472 0
44 -1472 0
75 -1472 0
-44 -76 1473 0
44 -1473 0
76 -1473 0
-44 -77 1474 0
44 -1474 0
77 -1474 0
-44 -78 1475 0
44 -1475 0
78 -1475 0
-45 -54 1476 0
45 -1476 0
54 -1476 0
-45 -55 1477 0
45 -1477 0
55 -1477 0
-45 -56 1478 0
45 -1478 0
56 -1478 0
-45 -57 1479 0
45 -1479 0
57 -1479 0
-45 -58 1480 0
45 -1480 0
58 -1480 0
-45 -59 1481 0
45 -1481 0
59 -1481 0
-45 -60 1482 0
45 -1482 0
60 -1482 0
-45 -61 1483 0
45 -1483 0
61 -1483 0
-45 -62 1484 0
45 -1484 0
62 -1484 0
-45 -63 1485 0
45 -1485 0
63 -1485 0
-45 -64 1486 0
45 -1486 0
64 -1486 0
-45 -65 1487 0
45 -1487 0
65 -1487 0
-45 -66 1488 0
45 -1488 0
66 -1488 0
-45 -67 1489 0
45 -1489 0
67 -1489 0
-45 -68 1490 0
45 -1490 0
68 -1490 0
-45 -69 1491 0
45 -1491 0
69 -1491 0
-45 -70 1492 0
45 -1492 0
70 -1492 0
-45 -71 1493 0
45 -1493 0
71 -1493 0
-45 -72 1494 0
45 -1494 0
72 -1494 0
-45 -73 1495 0
45 -1495 0
73 -1495 0
-45 -74 1496 0
45 -1496 0
74 -1496 0
-45 -75 1497 0
45 -1497 0
75 -1497 0
-45 -76 1498 0
45 -1498 0
76 -1498 0
-45 -77 1499 0
45 -1499 0
77 -1499 0
-45 -78 1500 0
45 -1500 0
78 -1500 0
-46 -54 1501 0
46 -1501 0
54 -1501 0
-46 -55 1502 0
46 -1502 0
55 -1502 0
-46 -56 1503 0
46 -1503 0
56 -1503 0
-46 -57 1504 0
46 -1504 0
57 -1504 0
-46 -58 1505 0
46 -1505 0
58 -1505 0
-46 -59 1506 0
46 -1506 0
59 -1506 0
-46 -60 1507 0
46 -1507 0
60 -1507 0
-46 -61 1508 0
46 -1508 0
61 -1508 0
-46 -62 1509 0
46 -1509 0
62 -1509 0
-46 -63 1510 0
46 -1510 0
63 -1510 0
-46 -64 1511 0
46 -1511 0
64 -1511 0
-46 -65 1512 0
46 -1512 0
65 -1512 0
-46 -66 1513 0
46 -1513 0
66 -1513 0
-46 -67 1514 0
46 -1514 0
67 -1514 0
-46 -68 1515 0
46 -1515 0
68 -1515 0
-46 -69 1516 0
46 -1516 0
69 -1516 0
-46 -70 1517 0
46 -1517 0
70 -1517 0
-46 -71 1518 0
46 -1518 0
71 -1518 0
-46 -72 1519 0
46 -1519 0
72 -1519 0
-46 -73 1520 0
46 -1520 0
73 -1520 0
-46 -74 1521 0
46 -1521 0
74 -1521 0
-46 -75 1522 0
46 -1522 0
75 -1522 0
-46 -76 1523 0
46 -1523 0
76 -1523 0
-46 -77 1524 0
46 -1524 0
77 -1524 0
-46 -78 1525 0
46 -1525 0
78 -1525 0
-47 -54 1526 0
47 -1526 0
54 -1526 0
-47 -55 1527 0
47 -1527 0
55 -1527 0
-47 -56 1528 0
47 -1528 0
56 -1528 0
-47 -57 1529 0
47 -1529 0
57 -1529 0
-47 -58 1530 0
47 -1530 0
58 -1530 0
-47 -59 1531 0
47 -1531 0
59 -1531 0
-47 -60 1532 0
47 -1532 0
60 -1532 0
-47 -61 1533 0
47 -1533 0
61 -1533 0
-47 -62 1534 0
47 -1534 0
62 -1534 0
-47 -63 1535 0
47 -1535 0
63 -1535 0
-47 -64 1536 0
47 -1536 0
64 -1536 0
-47 -65 1537 0
47 -1537 0
65 -1537 0
-47 -66 1538 0
47 -1538 0
66 -1538 0
-47 -67 1539 0
47 -1539 0
67 -1539 0
-47 -68 1540 0
47 -1540 0
68 -1540 0
-47 -69 1541 0
47 -1541 0
69 -1541 0
-47 -70 1542 0
47 -1542 0
70 -1542 0
-47 -71 1543 0
47 -1543 0
71 -1543 0
-47 -72 1544 0
47 -1544 0
72 -1544 0
-47 -73 1545 0
47 -1545 0
73 -1545 0
-47 -74 1546 0
47 -1546 0
74 -1546 0
-47 -75 1547 0
47 -1547 0
75 -1547 0
-47 -76 1548 0
47 -1548 0
76 -1548 0
-47 -77 1549 0
47 -1549 0
77 -1549 0
-47 -78 1550 0
47 -1550 0
78 -1550 0
-48 -54 1551 0
48 -1551 0
54 -1551 0
-48 -55 1552 0
48 -1552 0
55 -1552 0
-48 -56 1553 0
48 -1553 0
56 -1553 0
-48 -57 1554 0
48 -1554 0
57 -1554 0
-48 -58 1555 0
48 -1555 0
58 -1555 0
-48 -59 1556 0
48 -1556 0
59 -1556 0
-48 -60 1557 0
48 -1557 0
60 -1557 0
-48 -61 1558 0
48 -1558 0
61 -1558 0
-48 -62 1559 0
48 -1559 0
62 -1559 0
-48 -63 1560 0
48 -1560 0
63 -1560 0
-48 -64 1561 0
48 -1561 0
64 -1561 0
-48 -65 1562 0
48 -1562 0
65 -1562 0
-48 -66 1563 0
48 -1563 0
66 -1563 0
-48 -67 1564 0
48 -1564 0
67 -1564 0
-48 -68 1565 0
48 -1565 0
68 -1565 0
-48 -69 1566 0
48 -1566 0
69 -1566 0
-48 -70 1567 0
48 -1567 0
70 -1567 0
-48 -71 1568 0
48 -1568 0
71 -1568 0
-48 -72 1569 0
48 -1569 0
72 -1569 0
-48 -73 1570 0
48 -1570 0
73 -1570 0
-48 -74 1571 0
48 -1571 0
74 -1571 0
-48 -75 1572 0
48 -1572 0
75 -1572 0
-48 -76 1573 0
48 -1573 0
76 -1573 0
-48 -77 1574 0
48 -1574 0
77 -1574 0
-48 -78 1575 0
48 -1575 0
78 -1575 0
-49 -54 1576 0
49 -1576 0
54 -1576 0
-49 -55 1577 0
49 -1577 0
55 -1577 0
-49 -56 1578 0
49 -1578 0
56 -1578 0
-49 -57 1579 0
49 -1579 0
57 -1579 0
-49 -58 1580 0
49 -1580 0
58 -1580 0
-49 -59 1581 0
49 -1581 0
59 -1581 0
-49 -60 1582 0
49 -1582 0
60 -1582 0
-49 -61 1583 0
49 -1583 0
61 -1583 0
-49 -62 1584 0
49 -1584 0
62 -1584 0
-49 -63 1585 0
49 -1585 0
63 -1585 0
-49 -64 1586 0
49 -1586 0
64 -1586 0
-49 -65 1587 0
49 -1587 0
65 -1587 0
-49 -66 1588 0
49 -1588 0
66 -1588 0
-49 -67 1589 0
49 -1589 0
67 -1589 0
-49 -68 1590 0
49 -1590 0
68 -1590 0
-49 -69 1591 0
49 -1591 0
69 -1591 0
-49 -70 1592 0
49 -1592 0
70 -1592 0
-49 -71 1593 0
49 -1593 0
71 -1593 0
-49 -72 1594 0
49 -1594 0
72 -1594 0
-49 -73 1595 0
49 -1595 0
73 -1595 0
-49 -74 1596 0
49 -1596 0
74 -1596 0
-49 -75 1597 0
49 -1597 0
75 -1597 0
-49 -76 1598 0
49 -1598 0
76 -1598 0
-49 -77 1599 0
49 -1599 0
77 -1599 0
-49 -78 1600 0
49 -1600 0
78 -1600 0
-50 -54 1601 0
50 -1601 0
54 -1601 0
-50 -55 1602 0
50 -1602 0
55 -1602 0
-50 -56 1603 0
50 -1603 0
56 -1603 0
-50 -57 1604 0
50 -1604 0
57 -1604 0
-50 -58 1605 0
50 -1605 0
58 -1605 0
-50 -59 1606 0
50 -1606 0
59 -1606 0
-50 -60 1607 0
50 -1607 0
60 -1607 0
-50 -61 1608 0
50 -1608 0
61 -1608 0
-50 -62 1609 0
50 -1609 0
62 -1609 0
-50 -63 1610 0
50 -1610 0
63 -1610 0
-50 -64 1611 0
50 -1611 0
64 -1611 0
-50 -65 1612 0
50 -1612 0
65 -1612 0
-50 -66 1613 0
50 -1613 0
66 -1613 0
-50 -67 1614 0
50 -1614 0
67 -1614 0
-50 -68 1615 0
50 -1615 0
68 -1615 0
-50 -69 1616 0
50 -1616 0
69 -1616 0
-50 -70 1617 0
50 -1617 0
70 -1617 0
-50 -71 1618 0
50 -1618 0
71 -1618 0
-50 -72 1619 0
50 -1619 0
72 -1619 0
-50 -73 1620 0
50 -1620 0
73 -1620 0
-50 -74 1621 0
50 -1621 0
74 -1621 0
-50 -75 1622 0
50 -1622 0
75 -1622 0
-50 -76 1623 0
50 -1623 0
76 -1623 0
-50 -77 1624 0
50 -1624 0
77 -1624 0
-50 -78 1625 0
50 -1625 0
78 -1625 0
-51 -54 1626 0
51 -1626 0
54 -1626 0
-51 -55 1627 0
51 -1627 0
55 -1627 0
-51 -56 1628 0
51 -1628 0
56 -1628 0
-51 -57 1629 0
51 -1629 0
57 -1629 0
-51 -58 1630 0
51 -1630 0
58 -1630 0
-51 -59 1631 0
51 -1631 0
59 -1631 0
-51 -60 1632 0
51 -1632 0
60 -1632 0
-51 -61 1633 0
51 -1633 0
61 -1633 0
-51 -62 1634 0
51 -1634 0
62 -1634 0
-51 -63 1635 0
51 -1635 0
63 -1635 0
-51 -64 1636 0
51 -1636 0
64 -1636 0
-51 -65 1637 0
51 -1637 0
65 -1637 0
-51 -66 1638 0
51 -1638 0
66 -1638 0
-51 -67 1639 0
51 -1639 0
67 -1639 0
-51 -68 1640 0
51 -1640 0
68 -1640 0
-51 -69 1641 0
51 -1641 0
69 -1641 0
-51 -70 1642 0
51 -1642 0
70 -1642 0
-51 -71 1643 0
51 -1643 0
71 -1643 0
-51 -72 1644 0
51 -1644 0
72 -1644 0
-51 -73 1645 0
51 -1645 0
73 -1645 0
-51 -74 1646 0
51 -1646 0
74 -1646 0
-51 -75 1647 0
51 -1647 0
75 -1647 0
-51 -76 1648 0
51 -1648 0
76 -1648 0
-51 -77 1649 0
51 -1649 0
77 -1649 0
-51 -78 1650 0
51 -1650 0
78 -1650 0
-52 -54 1651 0
52 -1651 0
54 -1651 0
-52 -55 1652 0
52 -1652 0
55 -1652 0
-52 -56 1653 0
52 -1653 0
56 -1653 0
-52 -57 1654 0
52 -1654 0
57 -1654 0
-52 -58 1655 0
52 -1655 0
58 -1655 0
-52 -59 1656 0
52 -1656 0
59 -1656 0
-52 -60 1657 0
52 -1657 0
60 -1657 0
-52 -61 1658 0
52 -1658 0
61 -1658 0
-52 -62 1659 0
52 -1659 0
62 -1659 0
-52 -63 1660 0
52 -1660 0
63 -1660 0
-52 -64 1661 0
52 -1661 0
64 -1661 0
-52 -65 1662 0
52 -1662 0
65 -1662 0
-52 -66 1663 0
52 -1663 0
66 -1663 0
-52 -67 1664 0
52 -1664 0
67 -1664 0
-52 -68 1665 0
52 -1665 0
68 -1665 0
-52 -69 1666 0
52 -1666 0
69 -1666 0
-52 -70 1667 0
52 -1667 0
70 -1667 0
-52 -71 1668 0
52 -1668 0
71 -1668 0
-52 -72 1669 0
52 -1669 0
72 -1669 0
-52 -73 1670 0
52 -1670 0
73 -1670 0
-52 -74 1671 0
52 -1671 0
74 -1671 0
-52 -75 1672 0
52 -1672 0
75 -1672 0
-52 -76 1673 0
52 -1673 0
76 -1673 0
-52 -77 1674 0
52 -1674 0
77 -1674 0
-52 -78 1675 0
52 -1675 0
78 -1675 0
-53 -54 1676 0
53 -1676 0
54 -1676 0
-53 -55 1677 0
53 -1677 0
55 -1677 0
-53 -56 1678 0
53 -1678 0
56 -1678 0
-53 -57 1679 0
53 -1679 0
57 -1679 0
-53 -58 1680 0
53 -1680 0
58 -1680 0
-53 -59 1681 0
53 -1681 0
59 -1681 0
-53 -60 1682 0
53 -1682 0
60 -1682 0
-53 -61 1683 0
53 -1683 0
61 -1683 0
-53 -62 1684 0
53 -1684 0
62 -1684 0
-53 -63 1685 0
53 -1685 0
63 -1685 0
-53 -64 1686 0
53 -1686 0
64 -1686 0
-53 -65 1687 0
53 -1687 0
65 -1687 0
-53 -66 1688 0
53 -1688 0
66 -1688 0
-53 -67 1689 0
53 -1689 0
67 -1689 0
-53 -68 1690 0
53 -1690 0
68 -1690 0
-53 -69 1691 0
53 -1691 0
69 -1691 0
-53 -70 1692 0
53 -1692 0
70 -1692 0
-53 -71 1693 0
53 -1693 0
71 -1693 0
-53 -72 1694 0
53 -1694 0
72 -1694 0
-53 -73 1695 0
53 -1695 0
73 -1695 0
-53 -74 1696 0
53 -1696 0
74 -1696 0
-53 -75 1697 0
53 -1697 0
75 -1697 0
-53 -76 1698 0
53 -1698 0
76 -1698 0
-53 -77 1699 0
53 -1699 0
77 -1699 0
-53 -78 1700 0
53 -1700 0
78 -1700 0
-54 -55 1701 0
54 -1701 0
55 -1701 0
-54 -56 1702 0
54 -1702 0
56 -1702 0
-54 -57 1703 0
54 -1703 0
57 -1703 0
-54 -58 1704 0
54 -1704 0
58 -1704 0
-54 -59 1705 0
54 -1705 0
59 -1705 0
-54 -60 1706 0
54 -1706 0
60 -1706 0
-54 -61 1707 0
54 -1707 0
61 -1707 0
-54 -62 1708 0
54 -1708 0
62 -1708 0
-54 -63 1709 0
54 -1709 0
63 -1709 0
-54 -64 1710 0
54 -1710 0
64 -1710 0
-54 -65 1711 0
54 -1711 0
65 -1711 0
-54 -66 1712 0
54 -1712 0
66 -1712 0
-54 -67 1713 0
54 -1713 0
67 -1713 0
-54 -68 1714 0
54 -1714 0
68 -1714 0
-54 -69 1715 0
54 -1715 0
69 -1715 0
-54 -70 1716 0
54 -1716 0
70 -1716 0
-54 -71 1717 0
54 -1717 0
71 -1717 0
-54 -72 1718 0
54 -1718 0
72 -1718 0
-54 -73 1719 0
54 -1719 0
73 -1719 0
-54 -74 1720 0
54 -1720 0
74 -1720 0
-54 -75 1721 0
54 -1721 0
75 -1721 0
-54 -76 1722 0
54 -1722 0
76 -1722 0
-54 -77 1723 0
54 -1723 0
77 -1723 0
-54 -78 1724 0
54 -1724 0
78 -1724 0
-55 -56 1725 0
55 -1725 0
56 -1725 0
-55 -57 1726 0
55 -1726 0
57 -1726 0
-55 -58 1727 0
55 -1727 0
58 -1727 0
-55 -59 1728 0
55 -1728 0
59 -1728 0
-55 -60 1729 0
55 -1729 0
60 -1729 0
-55 -61 1730 0
55 -1730 0
61 -1730 0
-55 -62 1731 0
55 -1731 0
62 -1731 0
-55 -63 1732 0
55 -1732 0
63 -1732 0
-55 -64 1733 0
55 -1733 0
64 -1733 0
-55 -65 1734 0
55 -1734 0
65 -1734 0
-55 -66 1735 0
55 -1735 0
66 -1735 0
-55 -67 1736 0
55 -1736 0
67 -1736 0
-55 -68 1737 0
55 -1737 0
68 -1737 0
-55 -69 1738 0
55 -1738 0
69 -1738 0
-55 -70 1739 0
55 -1739 0
70 -1739 0
-55 -71 1740 0
55 -1740 0
71 -1740 0
-55 -72 1741 0
55 -1741 0
72 -1741 0
-55 -73 1742 0
55 -1742 0
73 -1742 0
-55 -74 1743 0
55 -1743 0
74 -1743 0
-55 -75 1744 0
55 -1744 0
75 -1744 0
-55 -76 1745 0
55 -1745 0
76 -1745 0
-55 -77 1746 0
55 -1746 0
77 -1746 0
-55 -78 1747 0
55 -1747 0
78 -1747 0
-56 -57 1748 0
56 -1748 0
57 -1748 0
-56 -58 1749 0
56 -1749 0
58 -1749 0
-56 -59 1750 0
56 -1750 0
59 -1750 0
-56 -60 1751 0
56 -1751 0
60 -1751 0
-56 -61 1752 0
56 -1752 0
61 -1752 0
-56 -62 1753 0
56 -1753 0
62 -1753 0
-56 -63 1754 0
56 -1754 0
63 -1754 0
-56 -64 1755 0
56 -1755 0
64 -1755 0
-56 -65 1756 0
56 -1756 0
65 -1756 0
-56 -66 1757 0
56 -1757 0
66 -1757 0
-56 -67 1758 0
56 -1758 0
67 -1758 0
-56 -68 1759 0
56 -1759 0
68 -1759 0
-56 -69 1760 0
56 -1760 0
69 -1760 0
-56 -70 1761 0
56 -1761 0
70 -1761 0
-56 -71 1762 0
56 -1762 0
71 -1762 0
-56 -72 1763 0
56 -1763 0
72 -1763 0
-56 -73 1764 0
56 -1764 0
73 -1764 0
-56 -74 1765 0
56 -1765 0
74 -1765 0
-56 -75 1766 0
56 -1766 0
75 -1766 0
-56 -76 1767 0
56 -1767 0
76 -1767 0
-56 -77 1768 0
56 -1768 0
77 -1768 0
-56 -78 1769 0
56 -1769 0
78 -1769 0
-57 -58 1770 0
57 -1770 0
58 -1770 0
-57 -59 1771 0
57 -1771 0
59 -1771 0
-57 -60 1772 0
57 -1772 0
60 -1772 0
-57 -61 1773 0
57 -1773 0
61 -1773 0
-57 -62 1774 0
57 -1774 0
62 -1774 0
-57 -63 1775 0
57 -1775 0
63 -1775 0
-57 -64 1776 0
57 -1776 0
64 -1776 0
-57 -65 1777 0
57 -1777 0
65 -1777 0
-57 -66 1778 0
57 -1778 0
66 -1778 0
-57 -67 1779 0
57 -1779 0
67 -1779 0
-57 -68 1780 0
57 -1780 0
68 -1780 0
-57 -69 1781 0
57 -1781 0
69 -1781 0
-57 -70 1782 0
57 -1782 0
70 -1782 0
-57 -71 1783 0
57 -1783 0
71 -1783 0
-57 -72 1784 0
57 -1784 0
72 -1784 0
-57 -73 1785 0
57 -1785 0
73 -1785 0
-57 -74 1786 0
57 -1786 0
74 -1786 0
-57 -75 1787 0
57 -1787 0
75 -1787 0
-57 -76 1788 0
57 -1788 0
76 -1788 0
-57 -77 1789 0
57 -1789 0
77 -1789 0
-57 -78 1790 0
57 -1790 0
78 -1790 0
-58 -59 1791 0
58 -1791 0
59 -1791 0
-58 -60 1792 0
58 -1792 0
60 -1792 0
-58 -61 1793 0
58 -1793 0
61 -1793 0
-58 -62 1794 0
58 -1794 0
62 -1794 0
-58 -63 1795 0
58 -1795 0
63 -1795 0
-58 -64 1796 0
58 -1796 0
64 -1796 0
-58 -65 1797 0
58 -1797 0
65 -1797 0
-58 -66 1798 0
58 -1798 0
66 -1798 0
-58 -67 1799 0
58 -1799 0
67 -1799 0
-58 -68 1800 0
58 -1800 0
68 -1800 0
-58 -69 1801 0
58 -1801 0
69 -1801 0
-58 -70 1802 0
58 -1802 0
70 -1802 0
-58 -71 1803 0
58 -1803 0
71 -1803 0
-58 -72 1804 0
58 -1804 0
72 -1804 0
-58 -73 1805 0
58 -1805 0
73 -1805 0
-58 -74 1806 0
58 -1806 0
74 -1806 0
-58 -75 1807 0
58 -1807 0
75 -1807 0
-58 -76 1808 0
58 -1808 0
76 -1808 0
-58 -77 1809 0
58 -1809 0
77 -1809 0
-58 -78 1810 0
58 -1810 0
78 -1810 0
-59 -60 1811 0
59 -1811 0
60 -1811 0
-59 -61 1812 0
59 -1812 0
61 -1812 0
-59 -62 1813 0
59 -1813 0
62 -1813 0
-59 -63 1814 0
59 -1814 0
63 -1814 0
-59 -64 1815 0
59 -1815 0
64 -1815 0
-59 -65 1816 0
59 -1816 0
65 -1816 0
-59 -66 1817 0
59 -1817 0
66 -1817 0
-59 -67 1818 0
59 -1818 0
67 -1818 0
-59 -68 1819 0
59 -1819 0
68 -1819 0
-59 -69 1820 0
59 -1820 0
69 -1820 0
-59 -70 1821 0
59 -1821 0
70 -1821 0
-59 -71 1822 0
59 -1822 0
71 -1822 0
-59 -72 1823 0
59 -1823 0
72 -1823 0
-59 -73 1824 0
59 -1824 0
73 -1824 0
-59 -74 1825 0
59 -1825 0
74 -1825 0
-59 -75 1826 0
59 -1826 0
75 -1826 0
-59 -76 1827 0
59 -1827 0
76 -1827 0
-59 -77 1828 0
59 -1828 0
77 -1828 0
-59 -78 1829 0
59 -1829 0
78 -1829 0
-60 -61 1830 0
60 -1830 0
61 -1830 0
-60 -62 1831 0
60 -1831 0
62 -1831 0
-60 -63 1832 0
60 -1832 0
63 -1832 0
-60 -64 1833 0
60 -1833 0
64 -1833 0
-60 -65 1834 0
60 -1834 0
65 -1834 0
-60 -66 1835 0
60 -1835 0
66 -1835 0
-60 -67 1836 0
60 -1836 0
67 -1836 0
-60 -68 1837 0
60 -1837 0
68 -1837 0
-60 -69 1838 0
60 -1838 0
69 -1838 0
-60 -70 1839 0
60 -1839 0
70 -1839 0
-60 -71 1840 0
60 -1840 0
71 -1840 0
-60 -72 1841 0
60 -1841 0
72 -1841 0
-60 -73 1842 0
60 -1842 0
73 -1842 0
-60 -74 1843 0
60 -1843 0
74 -1843 0
-60 -75 1844 0
60 -1844 0
75 -1844 0
-60 -76 1845 0
60 -1845 0
76 -1845 0
-60 -77 1846 0
60 -1846 0
77 -1846 0
-60 -78 1847 0
60 -1847 0
78 -1847 0
-61 -62 1848 0
61 -1848 0
62 -1848 0
-61 -63 1849 0
61 -1849 0
63 -1849 0
-61 -64 1850 0
61 -1850 0
64 -1850 0
-61 -65 1851 0
61 -1851 0
65 -1851 0
-61 -66 1852 0
61 -1852 0
66 -1852 0
-61 -67 1853 0
61 -1853 0
67 -1853 0
-61 -68 1854 0
61 -1854 0
68 -1854 0
-61 -69 1855 0
61 -1855 0
69 -1855 0
-61 -70 1856 0
61 -1856 0
70 -1856 0
-61 -71 1857 0
61 -1857 0
71 -1857 0
-61 -72 1858 0
61 -1858 0
72 -1858 0
-61 -73 1859 0
61 -1859 0
73 -1859 0
-61 -74 1860 0
61 -1860 0
74 -1860 0
-61 -75 1861 0
61 -1861 0
75 -1861 0
-61 -76 1862 0
61 -1862 0
76 -1862 0
-61 -77 1863 0
61 -1863 0
77 -1863 0
-61 -78 1864 0
61 -1864 0
78 -1864 0
-62 -63 1865 0
62 -1865 0
63 -1865 0
-62 -64 1866 0
62 -1866 0
64 -1866 0
-62 -65 1867 0
62 -1867 0
65 -1867 0
-62 -66 1868 0
62 -1868 0
66 -1868 0
-62 -67 1869 0
62 -1869 0
67 -1869 0
-62 -68 1870 0
62 -1870 0
68 -1870 0
-62 -69 1871 0
62 -1871 0
69 -1871 0
-62 -70 1872 0
62 -1872 0
70 -1872 0
-62 -71 1873 0
62 -1873 0
71 -1873 0
-62 -72 1874 0
62 -1874 0
72 -1874 0
-62 -73 1875 0
62 -1875 0
73 -1875 0
-62 -74 1876 0
62 -1876 0
74 -1876 0
-62 -75 1877 0
62 -1877 0
75 -1877 0
-62 -76 1878 0
62 -1878 0
76 -1878 0
-62 -77 1879 0
62 -1879 0
77 -1879 0
-62 -78 1880 0
62 -1880 0
78 -1880 0
-63 -64 1881 0
63 -1881 0
64 -1881 0
-63 -65 1882 0
63 -1882 0
65 -1882 0
-63 -66 1883 0
63 -1883 0
66 -1883 0
-63 -67 1884 0
63 -1884 0
67 -1884 0
-63 -68 1885 0
63 -1885 0
68 -1885 0
-63 -69 1886 0
63 -1886 0
69 -1886 0
-63 -70 1887 0
63 -1887 0
70 -1887 0
-63 -71 1888 0
63 -1888 0
71 -1888 0
-63 -72 1889 0
63 -1889 0
72 -1889 0
-63 -73 1890 0
63 -1890 0
73 -1890 0
-63 -74 1891 0
63 -1891 0
74 -1891 0
-63 -75 1892 0
63 -1892 0
75 -1892 0
-63 -76 1893 0
63 -1893 0
76 -1893 0
-63 -77 1894 0
63 -1894 0
77 -1894 0
-63 -78 1895 0
63 -1895 0
78 -1895 0
-64 -65 1896 0
64 -1896 0
65 -1896 0
-64 -66 1897 0
64 -1897 0
66 -1897 0
-64 -67 1898 0
64 -1898 0
67 -1898 0
-64 -68 1899 0
64 -1899 0
68 -1899 0
-64 -69 1900 0
64 -1900 0
69 -1900 0
-64 -70 1901 0
64 -1901 0
70 -1901 0
-64 -71 1902 0
64 -1902 0
71 -1902 0
-64 -72 1903 0
64 -1903 0
72 -1903 0
-64 -73 1904 0
64 -1904 0
73 -1904 0
-64 -74 1905 0
64 -1905 0
74 -1905 0
-64 -75 1906 0
64 -1906 0
75 -1906 0
-64 -76 1907 0
64 -1907 0
76 -1907 0
-64 -77 1908 0
64 -1908 0
77 -1908 0
-64 -78 1909 0
64 -1909 0
78 -1909 0
-65 -66 1910 0
65 -1910 0
66 -1910 0
-65 -67 1911 0
65 -1911 0
67 -1911 0
-65 -68 1912 0
65 -1912 0
68 -1912 0
-65 -69 1913 0
65 -1913 0
69 -1913 0
-65 -70 1914 0
65 -1914 0
70 -1914 0
-65 -71 1915 0
65 -1915 0
71 -1915 0
-65 -72 1916 0
65 -1916 0
72 -1916 0
-65 -73 1917 0
65 -1917 0
73 -1917 0
-65 -74 1918 0
65 -1918 0
74 -1918 0
-65 -75 1919 0
65 -1919 0
75 -1919 0
-65 -76 1920 0
65 -1920 0
76 -1920 0
-65 -77 1921 0
65 -1921 0
77 -1921 0
-65 -78 1922 0
65 -1922 0
78 -1922 0
-66 -67 1923 0
66 -1923 0
67 -1923 0
-66 -68 1924 0
66 -1924 0
68 -1924 0
-66 -69 1925 0
66 -1925 0
69 -1925 0
-66 -70 1926 0
66 -1926 0
70 -1926 0
-66 -71 1927 0
66 -1927 0
71 -1927 0
-66 -72 1928 0
66 -1928 0
72 -1928 0
-66 -73 1929 0
66 -1929 0
73 -1929 0
-66 -74 1930 0
66 -1930 0
74 -1930 0
-66 -75 1931 0
66 -1931 0
75 -1931 0
-66 -76 1932 0
66 -1932 0
76 -1932 0
-66 -77 1933 0
66 -1933 0
77 -1933 0
-66 -78 1934 0
66 -1934 0
78 -1934 0
-67 -68 1935 0
67 -1935 0
68 -1935 0
-67 -69 1936 0
67 -1936 0
69 -1936 0
-67 -70 1937 0
67 -1937 0
70 -1937 0
-67 -71 1938 0
67 -1938 0
71 -1938 0
-67 -72 1939 0
67 -1939 0
72 -1939 0
-67 -73 1940 0
67 -1940 0
73 -1940 0
-67 -74 1941 0
67 -1941 0
74 -1941 0
-67 -75 1942 0
67 -1942 0
75 -1942 0
-67 -76 1943 0
67 -1943 0
76 -1943 0
-67 -77 1944 0
67 -1944 0
77 -1944 0
-67 -78 1945 0
67 -1945 0
78 -1945 0
-68 -69 1946 0
68 -1946 0
69 -1946 0
-68 -70 1947 0
68 -1947 0
70 -1947 0
-68 -71 1948 0
68 -1948 0
71 -1948 0
-68 -72 1949 0
68 -1949 0
72 -1949 0
-68 -73 1950 0
68 -1950 0
73 -1950 0
-68 -74 1951 0
68 -1951 0
74 -1951 0
-68 -75 1952 0
68 -1952 0
75 -1952 0
-68 -76 1953 0
68 -1953 0
76 -1953 0
-68 -77 1954 0
68 -1954 0
77 -1954 0
-68 -78 1955 0
68 -1955 0
78 -1955 0
-69 -70 1956 0
69 -1956 0
70 -1956 0
-69 -71 1957 0
69 -1957 0
71 -1957 0
-69 -72 1958 0
69 -1958 0
72 -1958 0
-69 -73 1959 0
69 -1959 0
73 -1959 0
-69 -74 1960 0
69 -1960 0
74 -1960 0
-69 -75 1961 0
69 -1961 0
75 -1961 0
-69 -76 1962 0
69 -1962 0
76 -1962 0
-69 -77 1963 0
69 -1963 0
77 -1963 0
-69 -78 1964 0
69 -1964 0
78 -1964 0
-70 -71 1965 0
70 -1965 0
71 -1965 0
-70 -72 1966 0
70 -1966 0
72 -1966 0
-70 -73 1967 0
70 -1967 0
73 -1967 0
-70 -74 1968 0
70 -1968 0
74 -1968 0
-70 -75 1969 0
70 -1969 0
75 -1969 0
-70 -76 1970 0
70 -1970 0
76 -1970 0
-70 -77 1971 0
70 -1971 0
77 -1971 0
-70 -78 1972 0
70 -1972 0
78 -1972 0
-71 -72 1973 0
71 -1973 0
72 -1973 0
-71 -73 1974 0
71 -1974 0
73 -1974 0
-71 -74 1975 0
71 -1975 0
74 -1975 0
-71 -75 1976 0
71 -1976 0
75 -1976 0
-71 -76 1977 0
71 -1977 0
76 -1977 0
-71 -77 1978 0
71 -1978 0
77 -1978 0
-71 -78 1979 0
71 -1979 0
78 -1979 0
-72 -73 1980 0
72 -1980 0
73 -1980 0
-72 -74 1981 0
72 -1981 0
74 -1981 0
-72 -75 1982 0
72 -1982 0
75 -1982 0
-72 -76 1983 0
72 -1983 0
76 -1983 0
-72 -77 1984 0
72 -1984 0
77 -1984 0
-72 -78 1985 0
72 -1985 0
78 -1985 0
-73 -74 1986 0
73 -1986 0
74 -1986 0
-73 -75 1987 0
73 -1987 0
75 -1987 0
-73 -76 1988 0
73 -1988 0
76 -1988 0
-73 -77 1989 0
73 -1989 0
77 -1989 0
-73 -78 1990 0
73 -1990 0
78 -1990 0
-74 -75 1991 0
74 -1991 0
75 -1991 0
-74 -76 1992 0
74 -1992 0
76 -1992 0
-74 -77 1993 0
74 -1993 0
77 -1993 0
-74 -78 1994 0
74 -1994 0
78 -1994 0
-75 -76 1995 0
75 -1995 0
76 -1995 0
-75 -77 1996 0
75 -1996 0
77 -1996 0
-75 -78 1997 0
75 -1997 0
78 -1997 0
-76 -77 1998 0
76 -1998 0
77 -1998 0
-76 -78 1999 0
76 -1999 0
78 -1999 0
-77 -78 2000 0
77 -2000 0
78 -2000 0
x -1 10 19 28 0
x -2 11 20 29 0
x -3 12 21 30 0
x -4 13 22 31 0
x -5 14 23 32 0
x -6 15 24 33 0
x -7 16 25 34 0
x -8 17 26 35 0
x -9 18 27 36 0
x -79 169 970 37 0
x -89 170 178 268 971 979 38 0
x -99 171 188 269 277 367 972 980 988 39 0
x -109 172 198 270 287 368 376 466 973 981 989 997 40 0
x -119 173 208 271 297 369 386 467 475 565 974 982 990 998 1006 41 0
x -129 174 218 272 307 370 396 468 485 566 574 664 975 983 991 999 1007 1015 42 0
x -139 175 228 273 317 371 406 469 495 567 584 665 673 763 976 984 992 1000 1008 1016 1024 43 0
x -149 176 238 274 327 372 416 470 505 568 594 666 683 764 772 862 977 985 993 1001 1009 1017 1025 1033 44 0
x -159 177 248 275 337 373 426 471 515 569 604 667 693 765 782 863 871 961 978 986 994 1002 1010 1018 1026 1034 1042 45 0
x -258 276 347 374 436 472 525 570 614 668 703 766 792 864 881 962 987 995 1003 1011 1019 1027 1035 1043 46 0
x -357 375 446 473 535 571 624 669 713 767 802 865 891 963 996 1004 1012 1020 1028 1036 1044 47 0
x -456 474 545 572 634 670 723 768 812 866 901 964 1005 1013 1021 1029 1037 1045 48 0
x -555 573 644 671 733 769 822 867 911 965 1014 1022 1030 1038 1046 49 0
x -654 672 743 770 832 868 921 966 1023 1031 1039 1047 50 0
x -753 771 842 869 931 967 1032 1040 1048 51 0
x -852 870 941 968 1041 1049 52 0
x -951 969 1050 53 0
x -80 54 0
x -81 90 179 55 0
x -82 91 100 180 189 278 56 0
x -83 92 101 110 181 190 199 279 288 377 57 0
x -84 93 102 111 120 182 191 200 209 280 289 298 378 387 476 58 0
x -85 94 103 112 121 130 183 192 201 210 219 281 290 299 308 379 388 397 477 486 575 59 0
x -86 95 104 113 122 131 140 184 193 202 211 220 229 282 291 300 309 318 380 389 398 407 478 487 496 576 585 674 60 0
x -87 96 105 114 123 132 141 150 185 194 203 212 221 230 239 283 292 301 310 319 328 381 390 399 408 417 479 488 497 506 577 586 595 675 684 773 61 0
x -88 97 106 115 124 133 142 151 160 186 195 204 213 222 231 240 249 284 293 302 311 320 329 338 382 391 400 409 418 427 480 489 498 507 516 578 587 596 605 676 685 694 774 783 872 62 0
x -98 107 116 125 134 143 152 161 187 196 205 214 223 232 241 250 259 285 294 303 312 321 330 339 348 383 392 401 410 419 428 437 481 490 499 508 517 526 579 588 597 606 615 677 686 695 704 775 784 793 873 882 63 0
x -108 117 126 135 144 153 162 197 206 215 224 233 242 251 260 286 295 304 313 322 331 340 349 358 384 393 402 411 420 429 438 447 482 491 500 509 518 527 536 580 589 598 607 616 625 678 687 696 705 714 776 785 794 803 874 883 892 64 0
x -118 127 136 145 154 163 207 216 225 234 243 252 261 296 305 314 323 332 341 350 359 385 394 403 412 421 430 439 448 457 483 492 501 510 519 528 537 546 581 590 599 608 617 626 635 679 688 697 706 715 724 777 786 795 804 813 875 884 893 902 65 0
x -128 137 146 155 164 217 226 235 244 253 262 306 315 324 333 342 351 360 395 404 413 422 431 440 449 458 484 493 502 511 520 529 538 547 556 582 591 600 609 618 627 636 645 680 689 698 707 716 725 734 778 787 796 805 814 823 876 885 894 903 912 66 0
x -138 147 156 165 227 236 245 254 263 316 325 334 343 352 361 405 414 423 432 441 450 459 494 503 512 521 530 539 548 557 583 592 601 610 619 628 637 646 655 681 690 699 708 717 726 735 744 779 788 797 806 815 824 833 877 886 895 904 913 922 67 0
x -148 157 166 237 246 255 264 326 335 344 353 362 415 424 433 442 451 460 504 513 522 531 540 549 558 593 602 611 620 629 638 647 656 682 691 700 709 718 727 736 745 754 780 789 798 807 816 825 834 843 878 887 896 905 914 923 932 68 0
x -158 167 247 256 265 336 345 354 363 425 434 443 452 461 514 523 532 541 550 559 603 612 621 630 639 648 657 692 701 710 719 728 737 746 755 781 790 799 808 817 826 835 844 853 879 888 897 906 915 924 933 942 69 0
x -168 257 266 346 355 364 435 444 453 462 524 533 542 551 560 613 622 631 640 649 658 702 711 720 729 738 747 756 791 800 809 818 827 836 845 854 880 889 898 907 916 925 934 943 952 70 0
x -267 356 365 445 454 463 534 543 552 561 623 632 641 650 659 712 721 730 739 748 757 801 810 819 828 837 846 855 890 899 908 917 926 935 944 953 71 0
x -366 455 464 544 553 562 633 642 651 660 722 731 740 749 758 811 820 829 838 847 856 900 909 918 927 936 945 954 72 0
x -465 554 563 643 652 661 732 741 750 759 821 830 839 848 857 910 919 928 937 946 955 73 0
x -564 653 662 742 751 760 831 840 849 858 920 929 938 947 956 74 0
x -663 752 761 841 850 859 930 939 948 957 75 0
x -762 851 860 940 949 958 76 0
x -861 950 959 77 0
x -960 78 0
x 28 1051 1052 1054 1055 1057 1058 1059 1063 1064 1065 1068 1069 1073 1077 1078 1080 1081 1084 1087 1090 1092 1094 1097 1098 1100 1101 1103 1104 1106 1107 1108 1112 1113 1114 1117 1118 1122 1125 1126 1127 1129 1131 1132 1134 1135 1137 1138 1139 1140 1141 1142 1144 1146 1147 1149 1150 1152 1155 1156 1157 1161 1164 1165 1166 1167 1168 1171 1174 1175 1179 1182 1186 1188 1189 1191 1192 1193 1195 1196 1200 1204 1205 1206 1208 1209 1210 1212 1215 1217 1220 1221 1222 1226 1227 1229 1230 1231 1233 1234 1241 1242 1246 1247 1253 1257 1258 1259 1262 1266 1267 1268 1271 37 1276 1278 1279 1280 1281 1285 1286 1292 1293 1296 1297 1299 1300 1301 1302 1303 1304 1308 1309 1315 1316 1319 1320 1322 1323 1326 1327 1331 1332 1338 1339 1342 1343 1345 1346 1350 40 1354 1355 1361 1362 1365 1366 1368 1369 1373 1375 1377 1378 1384 1385 1388 1389 1391 1392 1396 1398 1399 1400 1401 1407 1408 1411 1412 1414 1415 1419 1421 1422 1423 1425 43 1430 1431 1434 1435 1437 1438 1442 1444 1445 1446 1448 1449 1453 1454 1457 1458 1460 1461 1465 1467 1468 1469 1471 1472 1475 1476 1477 1480 1481 1483 1484 1488 1490 1491 1492 1494 1495 1498 1500 46 1503 1504 1506 1507 1511 1513 1514 1515 1517 1518 1521 1523 1525 1526 1527 1529 1530 1534 1536 1537 1538 1540 1541 1544 1546 1548 1550 48 1552 1553 1557 1559 1560 1561 1563 1564 1567 1569 1571 1573 1576 1580 1582 1583 1584 1586 1587 1590 1592 1594 1596 1599 1600 50 1603 1605 1606 1607 1609 1610 1613 1615 1617 1619 1622 1623 1625 51 1626 1628 1629 1630 1632 1633 1636 1638 1640 1642 1645 1646 1648 1649 1650 1651 1652 1653 1655 1656 1659 1661 1663 1665 1668 1669 1671 1672 1673 1675 1676 1678 1679 1682 1684 1686 1688 1691 1692 1694 1695 1696 1698 54 1701 1702 1704 1706 1708 1710 1711 1717 1719 1721 1722 1724 1725 1726 1728 1730 1731 1733 1734 1735 1736 1738 1739 1740 1743 1744 1745 1746 1747 1748 1750 1751 1752 1753 1754 1757 1759 1760 1761 1767 1773 1774 1775 1777 1779 1780 1781 1784 58 1791 1793 1796 1799 1801 1802 1803 1804 1805 1806 1808 1809 1812 1814 1815 1818 1820 1821 1823 1824 1825 1826 1830 1832 1833 1836 1844 1845 1849 1850 1851 1853 1856 1858 1859 1860 1862 1863 1866 1867 1869 1870 1871 1880 1882 1884 1886 1888 1892 1893 1894 64 1896 1897 1898 1899 1901 1902 1906 1907 65 1910 1913 1914 1917 1920 1921 1925 1926 1927 1928 1929 1930 1932 1933 1934 67 1935 1937 1938 1939 1940 1941 1943 1947 1952 1953 1955 1958 1959 1963 1964 70 1967 1968 1970 1971 1973 1974 1975 1977 1979 72 1980 1984 1985 73 1986 74 1991 1993 75 1995 1996 1997 1999 77 2000 0
x 1051 1053 1056 1060 1064 1065 1067 1068 1069 1070 1073 1078 1081 1083 1085 1088 1090 1092 1093 1095 1097 1099 1101 1102 1103 1104 1105 1106 1108 1109 1113 1116 1118 1119 1121 1122 1123 1125 1128 1131 1132 1133 1135 1136 1141 1142 1143 1146 1147 1148 1149 1150 1153 1154 1155 1156 1157 1158 1163 1164 1165 1166 1167 1168 1170 1172 1173 1176 1178 1179 1180 1183 1186 1188 1189 1190 1192 1196 1199 1200 1202 1203 1205 1206 1207 1209 1212 1213 1216 1217 1222 1224 1226 1228 1230 1231 1232 1236 1241 1243 1245 1250 1251 1254 1263 1265 1266 1267 1268 1271 1274 1275 37 1276 1277 1279 1280 1281 1282 1286 1287 1293 1294 1297 1298 1300 1302 1303 1304 1305 1309 1310 1316 1317 1320 1321 1323 1324 39 1326 1327 1328 1332 1333 1339 1340 1343 1344 1346 1347 1351 1355 1356 1362 1363 1366 1367 1369 1370 1374 41 1378 1379 1385 1386 1389 1390 1392 1393 1397 1399 1400 42 1401 1402 1408 1409 1412 1413 1415 1416 1420 1422 1423 1424 1431 1432 1435 1436 1438 1439 1443 1445 1446 1447 1449 1450 1454 1455 1458 1459 1461 1462 1466 1468 1469 1470 1472 1473 45 1477 1478 1481 1482 1484 1485 1489 1491 1492 1493 1495 1496 1499 1501 1504 1505 1507 1508 1512 1514 1515 1516 1518 1519 1522 1524 47 1527 1528 1530 1531 1535 1537 1538 1539 1541 1542 1545 1547 1549 48 1551 1553 1554 1558 1560 1561 1562 1564 1565 1568 1570 1572 1574 49 1576 1577 1581 1583 1584 1585 1587 1588 1591 1593 1595 1597 1600 1604 1606 1607 1608 1610 1611 1614 1616 1618 1620 1623 1624 51 1627 1629 1630 1631 1633 1634 1637 1639 1641 1643 1646 1647 1649 1650 1652 1653 1654 1656 1657 1660 1662 1664 1666 1669 1670 1672 1673 1674 53 1676 1677 1679 1680 1683 1685 1687 1689 1692 1693 1695 1696 1697 1699 54 1707 1708 1709 1710 1711 1712 1714 1717 1720 1721 1722 55 1728 1729 1730 1732 1733 1734 1736 1737 1738 1740 1741 1744 1745 1746 1747 56 1751 1753 1755 1760 1765 1767 1768 1770 1772 1773 1774 1776 1777 1778 1782 1785 1797 1798 1800 1801 1803 1804 1806 1809 1811 1816 1818 1821 1822 1824 1825 1826 1827 1829 1830 1831 1833 1838 1841 1843 1845 1847 61 1849 1850 1851 1853 1854 1857 1859 1860 1861 62 1866 1867 1868 1869 1871 1872 1873 1875 1878 1879 1882 1885 1887 1889 64 1899 1900 1901 1902 1906 1908 65 1911 1914 1915 1918 1919 1920 1922 66 1925 1926 1928 1929 1933 67 1936 1938 1939 1940 1943 1944 1945 68 1947 1948 1950 1951 1953 1955 1961 1963 70 1966 1967 1968 1969 1970 1972 71 1973 1976 1977 1981 1982 1983 1988 74 1991 1992 1993 75 1996 1997 76 1998 77 2000 0
x -1051 1053 1055 1056 1058 1061 1062 1063 1067 1070 1071 1072 1073 1074 1076 1078 1079 1081 1082 1083 1087 1088 1089 1092 1093 1097 1100 1101 1102 1104 1105 1107 1108 1109 1113 1114 1115 1118 1119 1123 1127 1128 1133 1134 1135 1140 1141 1143 1144 1146 1149 1151 1154 1155 1159 1160 1161 1162 1163 1168 1169 1172 1177 1179 1180 1181 1188 1190 1195 1199 1205 1206 1207 1208 1209 1210 1211 1212 1213 1214 1215 1216 1218 1222 1225 1226 1227 1235 1237 1240 1241 1245 1251 1252 1253 1254 1255 1256 1257 1262 1268 1272 37 1277 1279 1282 1283 1285 1286 1287 1288 1292 1293 1294 1295 1296 1297 1298 1300 38 1302 1305 1306 1308 1309 1310 1311 1315 1316 1317 1318 1319 1320 1321 1323 1324 1325 1328 1329 1331 1332 1333 1334 1338 1339 1340 1341 1342 1343 1344 1346 1347 1348 1350 1351 1352 1354 1355 1356 1357 1361 1362 1363 1364 1365 1366 1367 1369 1370 1371 1373 41 1377 1378 1379 1380 1384 1385 1386 1387 1388 1389 1390 1392 1393 1394 1396 1399 1401 1402 1403 1407 1408 1409 1410 1411 1412 1413 1415 1416 1417 1419 1422 1424 1426 1430 1431 1432 1433 1434 1435 1436 1438 1439 1440 1442 1445 1447 1449 1450 1453 1454 1455 1456 1457 1458 1459 1461 1462 1463 1465 1468 1470 1472 1473 1474 1475 45 1476 1477 1478 1479 1480 1481 1482 1484 1485 1486 1488 1491 1493 1495 1496 1497 1498 46 1501 1502 1503 1504 1505 1507 1508 1509 1511 1514 1516 1518 1519 1520 1521 1526 1527 1528 1530 1531 1532 1534 1537 1539 1541 1542 1543 1544 48 1551 1553 1554 1555 1557 1560 1562 1564 1565 1566 1567 1575 1576 1577 1578 1580 1583 1585 1587 1588 1589 1590 1598 1599 1600 50 1601 1603 1606 1608 1610 1611 1612 1613 1621 1622 1623 1624 1626 1629 1631 1633 1634 1635 1636 1644 1645 1646 1647 1649 1652 1654 1656 1657 1658 1659 1667 1668 1669 1670 1672 1674 1677 1679 1680 1681 1682 1690 1691 1692 1693 1695 1697 1700 1701 1705 1708 1711 1712 1715 1716 1718 1719 1723 1724 1729 1731 1733 1736 1742 1743 1746 56 1749 1751 1752 1755 1756 1759 1761 1766 1767 1768 1769 57 1770 1771 1773 1775 1778 1779 1780 1781 1782 1784 1788 1791 1792 1795 1796 1797 1798 1800 1801 1803 1806 1807 1808 1809 1810 59 1811 1813 1814 1815 1818 1819 1822 1826 1827 1828 1829 60 1830 1834 1837 1839 1842 1845 1846 1847 1849 1851 1852 1853 1856 1858 1859 1860 1861 1864 1865 1866 1869 1871 1872 1873 1874 1876 1880 1881 1882 1883 1885 1888 1892 1898 1899 1900 1903 1906 1907 1908 1911 1912 1913 1915 1917 1920 1925 1928 1931 67 1935 1936 1941 1942 1943 1944 68 1947 1948 1949 1952 1954 1956 1958 1960 1962 1964 70 1967 1968 1971 1972 1974 1975 1977 1979 1981 1982 1984 1985 73 1986 1987 1988 1989 1990 1994 1995 1997 76 77 2000 78 0
x 1051 1052 1053 1054 1055 1057 1058 1059 1060 1062 1063 1064 1066 1068 1069 1071 1072 1074 1076 1083 1088 1089 1094 1097 1098 1099 1101 1102 1104 1105 1109 1110 1115 1116 1117 1119 1120 1121 1123 1124 1125 1126 1127 1129 1130 1132 1134 1135 1136 1138 1142 1144 1149 1154 1155 1160 1161 1163 1164 1165 1170 1171 1174 1175 1176 1181 1182 1186 1191 1193 1195 1196 1197 1198 1199 1200 1201 1202 1204 1206 1207 1208 1209 1211 1212 1214 1215 1216 1221 1222 1225 1226 1227 1234 1236 1237 1238 1242 1243 1245 1247 1249 1250 1253 1254 1255 1256 1257 1261 1263 1265 1267 1270 1271 1274 1276 1278 1280 1283 1284 1286 1287 1288 1289 1293 1294 1295 1296 1297 1298 1299 1301 1303 1306 1307 1309 1310 1311 1312 1316 1317 1318 1319 1320 1321 1322 1324 1325 39 1326 1329 1330 1332 1333 1334 1335 1339 1340 1341 1342 1343 1344 1345 1347 1348 1349 1352 1353 1355 1356 1357 1358 1362 1363 1364 1365 1366 1367 1368 1370 1371 1372 1374 41 1376 1378 1379 1380 1381 1385 1386 1387 1388 1389 1390 1391 1393 1394 1395 1397 1400 1401 1402 1403 1404 1408 1409 1410 1411 1412 1413 1414 1416 1417 1418 1420 1423 1425 43 1426 1427 1431 1432 1433 1434 1435 1436 1437 1439 1440 1441 1443 1446 1448 1450 1454 1455 1456 1457 1458 1459 1460 1462 1463 1464 1466 1469 1471 1473 1474 1475 45 1477 1478 1479 1480 1481 1482 1483 1485 1486 1487 1489 1492 1494 1496 1497 1498 1499 1501 1502 1503 1504 1505 1506 1508 1509 1510 1512 1515 1517 1519 1520 1521 1522 1526 1527 1528 1529 1531 1532 1533 1535 1538 1540 1542 1543 1544 1545 1551 1552 1554 1555 1556 1558 1561 1563 1565 1566 1567 1568 1577 1578 1579 1581 1584 1586 1588 1589 1590 1591 1599 1600 50 1601 1602 1604 1607 1609 1611 1612 1613 1614 1622 1623 1624 1625 1627 1630 1632 1634 1635 1636 1637 1645 1646 1647 1648 1650 52 1653 1655 1657 1658 1659 1660 1668 1669 1670 1671 1673 1675 53 1676 1678 1680 1681 1682 1683 1691 1692 1693 1694 1696 1698 1704 1705 1708 1710 1711 1712 1713 1714 1715 1716 1720 1721 1722 1723 1725 1726 1729 1733 1735 1736 1737 1738 1740 1743 1744 1747 56 1748 1749 1754 1755 1756 1757 1758 1759 1760 1761 1762 1763 1765 1766 1769 57 1775 1777 1778 1779 1781 1783 1785 1789 1794 1795 1796 1797 1802 1803 1804 1805 1806 1809 1813 1818 1819 1823 1827 1828 60 1830 1834 1837 1838 1839 1840 1841 1842 1844 1847 61 1848 1849 1853 1857 1859 1860 1861 1862 1863 62 1869 1870 1871 1872 1876 1877 1878 1880 1883 1886 1889 1897 1900 1902 1903 1906 1907 1909 1910 1912 1913 1914 1916 1918 1919 1921 1922 66 1923 1925 1927 1928 1929 1930 1934 67 1936 1937 1941 1942 1943 1946 1947 1949 1952 1953 1954 1955 69 1957 1961 1962 70 1966 1969 1970 1973 1975 1977 1978 1979 72 1980 1983 1984 73 1986 1988 1990 1992 1993 75 1995 1996 76 1999 2000 0
x 1054 1059 1061 1062 1063 1064 1065 1066 1067 1070 1073 1075 29 1076 1077 1083 1084 1086 1088 1090 1094 1095 1096 1099 1100 1130 1131 1133 1135 1137 1141 1142 1143 1146 1147 1148 1149 1150 1153 1155 1156 1157 1158 1159 1160 1161 1164 1167 1169 1175 1176 1180 1182 1184 1185 1187 1189 1191 1192 1194 1195 1196 1197 1200 1202 1208 1209 1210 1212 1213 1217 1221 1222 1224 1226 1227 1229 1232 1235 1236 1237 1238 1239 1240 1242 1243 1246 1250 1251 1252 1253 1257 1258 1259 1260 1265 1267 1268 1270 1271 37 1276 1277 1278 1280 1284 1286 1287 1288 1289 1290 1292 1293 1294 1295 1298 38 1301 1303 1307 1309 1310 1311 1312 1313 1315 1316 1317 1318 1321 1325 1326 1330 1332 1333 1334 1335 1336 1338 1339 1340 1341 1344 1348 1349 1353 1355 1356 1357 1358 1359 1361 1362 1363 1364 1367 1371 1372 1376 1378 1379 1380 1381 1382 1384 1385 1386 1387 1390 1394 1395 1399 1400 1401 1402 1403 1404 1405 1407 1408 1409 1410 1413 1417 1418 1422 1423 1424 1425 1426 1427 1428 1430 1431 1432 1433 1436 1440 1441 1445 1446 1447 1448 44 1451 1453 1454 1455 1456 1459 1463 1464 1468 1469 1470 1471 1474 45 1476 1477 1478 1479 1482 1486 1487 1491 1492 1493 1494 1497 1499 1501 1502 1505 1509 1510 1514 1515 1516 1517 1520 1522 1525 47 1528 1532 1533 1537 1538 1539 1540 1543 1545 1548 1550 1551 1555 1556 1560 1561 1562 1563 1566 1568 1571 1573 49 1578 1579 1583 1584 1585 1586 1589 1591 1594 1596 1599 1601 1602 1606 1607 1608 1609 1612 1614 1617 1619 1622 1624 51 1629 1630 1631 1632 1635 1637 1640 1642 1645 1647 1650 1652 1653 1654 1655 1658 1660 1663 1665 1668 1670 1673 1674 1675 1676 1677 1678 1681 1683 1686 1688 1691 1693 1696 1697 1698 1699 1701 1703 1705 1707 1709 1711 1715 1718 1719 1723 1729 1732 1734 1735 1738 1741 1742 1743 1744 1745 1749 1753 1757 1760 1763 1764 1766 57 1770 1771 1777 1778 1779 1780 1781 1784 1787 1788 1789 1790 58 1792 1793 1794 1796 1799 1800 1801 1807 1808 1809 1810 59 1811 1813 1814 1815 1817 1819 1820 1821 1822 1823 1824 1827 1828 60 1834 1835 1839 1840 1841 1842 1843 1844 1847 61 1848 1852 1853 1858 1860 1863 1864 62 1865 1867 1868 1869 1870 1872 1873 1877 1878 1880 63 1881 1884 1887 1889 1891 1892 1894 1895 1897 1898 1899 1902 1903 1904 1906 1907 1908 65 1911 1912 1914 1916 1917 1922 66 1924 1925 1927 1932 1933 1935 1936 1937 1938 1940 1942 1943 1944 1945 1948 1950 1951 1952 1955 1956 1957 1961 1962 1963 1964 70 1967 1968 1970 1971 1976 1978 1979 1980 1981 1982 1983 1985 1986 1990 74 1993 1994 75 1996 76 1999 78 0
x 1054 1056 1057 1058 1060 1061 1062 1063 1064 1065 1067 1070 1071 1073 1074 1076 1077 1079 1080 1081 1082 1084 1087 1089 1090 1091 1092 1094 1095 1096 1102 1103 1104 1105 1106 1109 1114 1116 1118 1121 1124 1125 1126 1127 1128 1129 1130 1131 1132 1133 1134 1136 1140 1143 1144 1145 1147 1151 1152 1153 1156 1158 1159 1160 1161 1164 1165 1166 1168 1169 1170 1172 1173 1174 1176 1178 1183 1185 1192 1195 1201 1202 1203 1205 1209 1211 1212 1213 1217 1218 1220 1221 1223 1225 1227 1228 1229 1230 1233 1234 1237 1239 1240 1243 1245 1246 1247 1252 1254 1259 1261 1262 1265 1266 1270 1271 1272 1277 1278 1279 1281 1285 1287 1288 1289 1290 1291 1293 1294 1295 1296 1299 1301 1302 1304 1308 1310 1311 1312 1313 1314 1316 1317 1318 1319 1322 1327 1331 1333 1334 1335 1336 1337 1339 1340 1341 1342 1345 1349 1350 1354 1356 1357 1358 1359 1360 1362 1363 1364 1365 1368 1372 1373 41 1377 1379 1380 1381 1382 1383 1385 1386 1387 1388 1391 1395 1396 1400 1402 1403 1404 1405 1406 1408 1409 1410 1411 1414 1418 1419 1423 1424 1425 43 1426 1427 1428 1429 1431 1432 1433 1434 1437 1441 1442 1446 1447 1448 1449 1451 1452 1454 1455 1456 1457 1460 1464 1465 1469 1470 1471 1472 1475 1477 1478 1479 1480 1483 1487 1488 1492 1493 1494 1495 1498 1500 46 1501 1502 1503 1506 1510 1511 1515 1516 1517 1518 1521 1523 1526 1529 1533 1534 1538 1539 1540 1541 1544 1546 1549 48 1552 1556 1557 1561 1562 1563 1564 1567 1569 1572 1574 1579 1580 1584 1585 1586 1587 1590 1592 1595 1597 1600 1602 1603 1607 1608 1609 1610 1613 1615 1618 1620 1623 1625 51 1626 1630 1631 1632 1633 1636 1638 1641 1643 1646 1648 1653 1654 1655 1656 1659 1661 1664 1666 1669 1671 1674 1675 53 1676 1677 1678 1679 1682 1684 1687 1689 1692 1694 1697 1698 1699 1700 1701 1704 1707 1709 1710 1711 1714 1715 1717 1719 1721 1722 1725 1728 1730 1733 1734 1735 1737 1738 1739 1741 1742 1743 1744 1745 1746 56 1751 1752 1753 1754 1755 1756 1759 1760 1766 1767 1768 1769 57 1770 1771 1772 1776 1781 1782 1783 1785 1788 1789 1790 58 1791 1792 1794 1796 1797 1798 1799 1802 1804 1805 1806 1812 1815 1817 1820 1822 1823 1824 1825 1828 1831 1832 1834 1837 1843 1846 61 1848 1849 1850 1851 1852 1853 1854 1855 1859 1861 1863 1864 1867 1870 1871 1872 1876 1877 1879 1881 1888 1890 1892 64 1896 1897 1898 1899 1901 1902 1903 1906 1907 1908 65 1911 1912 1913 1915 1917 1918 1919 1921 1924 1929 1930 1936 1937 1938 1939 1944 1945 1946 1948 1950 1951 1952 1954 69 1957 1958 1959 1961 1962 1963 1964 70 1965 1966 1968 1970 1971 1972 1973 1975 1977 1979 1983 1984 73 1987 1990 1994 1996 1997 76 2000 78 0
x -1052 1053 1054 1056 1060 1064 1066 1068 1069 1071 1073 1075 1079 1084 1086 1087 1088 1089 1090 1091 1092 1095 1098 1100 1101 1102 1108 1109 1111 1113 1115 1119 1120 1121 1124 1125 1155 1156 1158 1160 1162 1166 1167 1168 1171 1172 1173 1174 1175 1178 1180 1181 1182 1183 1184 1185 1186 1189 1192 1194 1200 1201 1205 1207 1209 1210 1212 1214 1216 1217 1219 1220 1221 1222 1225 1227 1233 1234 1235 1237 1238 1242 1246 1247 1249 1251 1252 1254 1257 1260 1261 1262 1263 1264 1265 1267 1268 1271 1275 37 1278 1279 1280 1282 1286 1288 1289 1290 1291 1292 1294 1295 1296 1297 1300 38 1301 1302 1303 1305 1309 1311 1312 1313 1314 1315 1317 1318 1319 1320 1323 1326 1328 1332 1334 1335 1336 1337 1338 1340 1341 1342 1343 1346 1350 40 1351 1355 1357 1358 1359 1360 1361 1363 1364 1365 1366 1369 1373 1374 41 1378 1380 1381 1382 1383 1384 1386 1387 1388 1389 1392 1396 1397 42 1401 1403 1404 1405 1406 1407 1409 1410 1411 1412 1415 1419 1420 1424 1425 43 1426 1427 1428 1429 1430 1432 1433 1434 1435 1438 1442 1443 1447 1448 1449 1450 1451 1452 1453 1455 1456 1457 1458 1461 1465 1466 1470 1471 1472 1473 45 1476 1478 1479 1480 1481 1484 1488 1489 1493 1494 1495 1496 1499 1501 1502 1503 1504 1507 1511 1512 1516 1517 1518 1519 1522 1524 1526 1527 1530 1534 1535 1539 1540 1541 1542 1545 1547 1550 48 1553 1557 1558 1562 1563 1564 1565 1568 1570 1573 1575 1576 1580 1581 1585 1586 1587 1588 1591 1593 1596 1598 50 1603 1604 1608 1609 1610 1611 1614 1616 1619 1621 1624 51 1626 1627 1631 1632 1633 1634 1637 1639 1642 1644 1647 1649 52 1654 1655 1656 1657 1660 1662 1665 1667 1670 1672 1675 53 1677 1678 1679 1680 1683 1685 1688 1690 1693 1695 1698 1699 1700 54 1701 1703 1705 1706 1708 1710 1711 1714 1718 1719 1720 1722 1723 1725 1726 1730 1732 1736 1737 1742 1746 1750 1752 1753 1754 1755 1757 1758 1759 1761 1763 1767 1768 1769 1774 1776 1779 1780 1781 1783 1784 1785 1787 58 1792 1793 1795 1796 1797 1805 1806 1807 59 1811 1812 1813 1814 1815 1816 1817 1819 1820 1821 1826 1827 1828 1833 1834 1836 1838 1839 1844 61 1848 1850 1855 1856 1857 1858 1859 1860 1861 1863 1864 1866 1867 1872 1873 1877 1878 1879 1880 1881 1883 1884 1887 1888 1892 64 1896 1897 1898 1900 1902 1903 1904 1908 1910 1912 1915 1916 1917 1920 66 1923 1925 1930 1933 67 1935 1936 1938 1941 1944 1947 1949 1952 1955 69 1957 1960 1964 70 1966 1971 1972 71 1973 1974 1977 1978 72 1981 1984 1985 1986 1987 1988 1994 1997 76 1998 0
x -1051 1052 1053 1055 1056 1057 1061 1062 1063 1064 1068 1069 1070 1071 1072 1073 1077 1078 1079 1080 1082 1083 1084 1085 1086 1088 1089 1094 1095 1096 1097 1099 1100 1102 1103 1105 1108 1109 1113 1115 1116 1118 1119 1120 1121 1122 1125 1126 1128 1130 1132 1135 1137 1138 1140 1142 1143 1144 1147 1151 1153 1154 1158 1159 1164 1166 1167 1169 1170 1171 1172 1174 1175 1176 1177 1178 1179 1181 1182 1183 1184 1185 1188 1190 1192 1194 1196 1197 1198 1199 1200 1201 1203 1204 1205 1206 1209 1212 1215 1221 1222 1228 1229 1231 1233 1236 1237 1238 1241 1243 1245 1247 1248 1250 1252 1254 1255 1257 1264 1265 1266 1267 1270 1272 1276 1278 1283 1285 1286 1287 1289 1290 1291 1295 1298 1299 1300 1301 1306 1308 1309 1310 1312 1313 1314 1318 1321 1322 1323 1324 1329 1331 1332 1333 1335 1336 1337 1341 1344 1345 1346 1347 1350 1352 1354 1355 1356 1358 1359 1360 1364 1367 1368 1369 1370 1373 1374 41 1377 1378 1379 1381 1382 1383 1387 1390 1391 1392 1393 1396 1397 1399 1400 42 1401 1402 1404 1405 1406 1410 1413 1414 1415 1416 1419 1420 1422 1423 1427 1428 1429 1433 1436 1437 1438 1439 1442 1443 1445 1446 1450 1451 1452 1456 1459 1460 1461 1462 1465 1466 1468 1469 1473 1474 1475 45 1479 1482 1483 1484 1485 1488 1489 1491 1492 1496 1497 1498 46 1502 1505 1506 1507 1508 1511 1512 1514 1515 1519 1520 1521 47 1528 1529 1530 1531 1534 1535 1537 1538 1542 1543 1544 1550 1551 1552 1553 1554 1557 1558 1560 1561 1565 1566 1567 1573 1574 1576 1577 1580 1581 1583 1584 1588 1589 1590 1596 1597 1600 50 1603 1604 1606 1607 1611 1612 1613 1619 1620 1623 1626 1627 1629 1630 1634 1635 1636 1642 1643 1646 1649 1652 1653 1657 1658 1659 1665 1666 1669 1672 1675 53 1676 1680 1681 1682 1688 1689 1692 1695 1698 1699 1700 1701 1702 1703 1713 1716 1718 1720 1721 55 1726 1727 1728 1729 1730 1734 1736 1738 1740 1742 1744 1745 1746 1748 1750 1751 1753 1754 1755 1758 1759 1760 1764 1765 1766 1768 57 1771 1773 1774 1777 1780 1781 1782 1784 1785 1786 1788 1792 1793 1796 1798 1800 1803 1804 1806 1810 1813 1815 1816 1818 1819 1823 1824 1825 1826 1827 1828 1829 1834 1838 1839 1840 1841 1842 1843 1844 1845 1846 1847 61 1849 1850 1851 1852 1856 1857 1861 1863 1865 1866 1867 1871 1875 1877 1881 1882 1883 1885 1889 1892 64 1897 1898 1901 1904 1909 1910 1911 1912 1914 1916 1918 1922 66 1924 1926 1928 1932 1933 1934 1935 1936 1938 1940 1941 1943 1944 1945 68 1946 1948 1949 1951 1952 1954 1959 1960 1961 1962 1963 1964 1965 1966 1967 1968 1972 71 1973 1974 1976 1977 1978 72 1980 1983 1984 73 1987 1988 1989 74 1993 75 1995 1996 76 77 2000 78 0
x 1052 1058 1060 1061 1065 1067 1068 1069 1071 1072 1073 1074 1075 1077 1079 1083 1088 1089 1090 1091 1092 1094 1095 1096 1097 1098 1099 1100 30 1101 1102 1103 1105 1106 1108 1111 1112 1114 1115 1117 1118 1119 1120 1121 1122 1126 1127 1128 1131 1132 1134 1135 1138 1140 1141 1142 1143 1144 1145 1147 1148 1153 1154 1155 1156 1157 1158 1163 1164 1165 1166 1167 1168 1170 1172 1173 1176 1178 1179 1181 1185 1186 1187 1188 1189 1190 1191 1193 1197 1198 1202 1208 1210 1211 1212 1213 1214 1216 1219 1222 1224 1225 1228 1231 1234 1235 1236 1237 1239 1242 1243 1244 1246 1247 1251 1252 1254 1258 1259 1260 1262 1265 1266 1268 1272 1275 37 1276 1277 1279 1284 1286 1287 1288 1290 1291 1292 1296 1299 1300 1302 1307 1309 1310 1311 1313 1314 1315 1319 1322 1323 1324 1325 39 1330 1332 1333 1334 1336 1337 1338 1342 1345 1346 1347 1348 40 1353 1355 1356 1357 1359 1360 1361 1365 1368 1369 1370 1371 1374 1375 41 1376 1378 1379 1380 1382 1383 1384 1388 1391 1392 1393 1394 1397 1398 1400 42 1401 1402 1403 1405 1406 1407 1411 1414 1415 1416 1417 1420 1421 1423 1424 1426 1428 1429 1430 1434 1437 1438 1439 1440 1443 1444 1446 1447 1451 1452 1453 1457 1460 1461 1462 1463 1466 1467 1469 1470 1474 1475 1476 1480 1483 1484 1485 1486 1489 1490 1492 1493 1497 1498 1499 1503 1506 1507 1508 1509 1512 1513 1515 1516 1520 1521 1522 1526 1529 1530 1531 1532 1535 1536 1538 1539 1543 1544 1545 1552 1553 1554 1555 1558 1559 1561 1562 1566 1567 1568 1574 1575 1576 1577 1578 1581 1582 1584 1585 1589 1590 1591 1597 1598 50 1601 1604 1605 1607 1608 1612 1613 1614 1620 1621 1624 1627 1628 1630 1631 1635 1636 1637 1643 1644 1647 1650 52 1651 1653 1654 1658 1659 1660 1666 1667 1670 1673 1676 1677 1681 1682 1683 1689 1690 1693 1696 1699 1700 1701 1702 1703 1705 1707 1708 1710 1713 1715 1716 1717 1718 1719 1720 1722 1723 1725 1729 1730 1731 1732 1735 1736 1737 1739 1740 1743 1744 1747 56 1748 1755 1756 1757 1758 1761 1762 1764 1766 1769 57 1770 1772 1775 1781 1785 1788 1789 1790 1791 1792 1793 1798 1800 1801 1802 1810 1812 1814 1817 1819 1821 1827 1829 1830 1833 1834 1836 1838 1839 1842 1844 1845 61 1851 1852 1853 1854 1855 1857 1859 1860 1864 62 1865 1870 1873 1875 1876 1879 1880 63 1882 1883 1885 1886 1888 1889 1892 1893 1895 1896 1899 1900 1901 1902 1903 1905 1906 1907 1908 1910 1912 1913 1914 1916 1917 1918 1919 1921 1924 1929 1930 1931 1932 1933 1934 67 1938 1939 1940 1941 1942 1943 1944 1945 1949 1951 1953 69 1956 1958 1960 1962 1963 1964 1969 1971 71 1974 1977 1978 1979 1980 1981 1983 1984 1988 1989 1990 1991 1993 1996 1997 76 1998 1999 77 2000 0
x 1057 1058 1059 1060 1061 1063 1064 1067 1069 1072 1073 1074 1076 1077 1078 1080 1081 1082 1086 1087 1088 1089 1093 1094 1095 1096 1097 1098 1102 1103 1104 1105 1107 1108 1109 1110 1111 1113 1114 1119 1120 1121 1122 1124 1125 1127 1128 1130 1133 1134 1138 1140 1141 1143 1144 1145 1146 1147 1150 1151 1153 1155 1157 1160 1162 1163 1165 1167 1168 1169 1172 1176 1178 1179 1183 1184 1189 1191 1192 1194 1195 1196 1197 1199 1200 1201 1202 1203 1204 1206 1207 1208 1209 1210 1213 1215 1217 1219 1221 1222 1223 1224 1225 1226 1228 1229 1230 1231 1234 1237 1240 1246 1247 1253 1254 1256 1258 1261 1262 1263 1266 1268 1270 1272 1273 1275 1276 1277 1278 1280 1285 1287 1288 1289 1291 1292 1293 1297 1300 1301 1303 1308 1310 1311 1312 1314 1315 1316 1320 1323 1324 1325 39 1326 1331 1333 1334 1335 1337 1338 1339 1343 1346 1347 1348 1349 1354 1356 1357 1358 1360 1361 1362 1366 1369 1370 1371 1372 1375 41 1377 1379 1380 1381 1383 1384 1385 1389 1392 1393 1394 1395 1398 1399 42 1402 1403 1404 1406 1407 1408 1412 1415 1416 1417 1418 1421 1422 1424 1425 43 1426 1427 1429 1430 1431 1435 1438 1439 1440 1441 1444 1445 1447 1448 44 1452 1453 1454 1458 1461 1462 1463 1464 1467 1468 1470 1471 1475 45 1476 1477 1481 1484 1485 1486 1487 1490 1491 1493 1494 1498 1499 1500 46 1504 1507 1508 1509 1510 1513 1514 1516 1517 1521 1522 1523 1527 1530 1531 1532 1533 1536 1537 1539 1540 1544 1545 1546 1553 1554 1555 1556 1559 1560 1562 1563 1567 1568 1569 1575 1576 1577 1578 1579 1582 1583 1585 1586 1590 1591 1592 1598 1599 50 1601 1602 1605 1606 1608 1609 1613 1614 1615 1621 1622 1625 51 1628 1629 1631 1632 1636 1637 1638 1644 1645 1648 1651 1652 1654 1655 1659 1660 1661 1667 1668 1671 1674 53 1677 1678 1682 1683 1684 1690 1691 1694 1697 1700 54 1701 1704 1705 1708 1709 1710 1711 1716 1717 1720 1721 1722 55 1726 1727 1728 1732 1739 1740 1743 1745 1746 56 1750 1754 1756 1757 1759 1765 1766 1768 1770 1771 1772 1775 1776 1778 1779 1780 1781 1782 1783 1785 1788 1789 1790 58 1792 1793 1798 1799 1801 1806 1807 1808 1810 59 1811 1815 1816 1817 1819 1820 1821 1822 1823 1824 1826 1828 1829 1830 1831 1835 1837 1838 1840 1842 1844 1845 61 1850 1851 1854 1856 1857 1861 1863 1864 1870 1875 1877 1878 1880 1881 1882 1884 1885 1886 1888 1889 1895 64 1897 1898 1899 1900 1901 1907 1908 1915 1916 1917 1918 1921 1922 66 1923 1925 1926 1927 1928 1931 1932 1934 1935 1936 1938 1939 1940 1944 1945 68 1946 1947 1948 1952 1953 1954 69 1956 1957 1960 1963 1966 1969 1970 1972 71 1973 1974 1979 72 1982 1984 1985 1988 1989 1992 1994 75 1996 76 1999 77 2000 0
x 1051 1052 1054 1055 1057 1059 1060 1063 1069 1070 1071 1073 1074 1075 1077 1083 1085 1086 1090 1092 1093 1094 1096 1097 1098 1099 1100 1102 1104 1108 1113 1114 1115 1116 1117 1119 1120 1121 1122 1123 1124 1125 1126 1127 1128 1130 1131 1133 1136 1137 1139 1140 1142 1143 1144 1145 1146 1147 1151 1152 1153 1156 1157 1159 1160 1163 1165 1166 1167 1168 1169 1170 1172 1173 1178 1179 1180 1181 1182 1183 1188 1189 1190 1191 1192 1193 1195 1197 1198 1201 1203 1204 1206 1210 1211 1212 1213 1214 1215 1216 1218 1222 1223 1227 1233 1235 1236 1237 1238 1239 1241 1244 1247 1249 1250 1253 1256 1259 1260 1261 1262 1264 1267 1268 1269 1271 1272 37 1277 1278 1279 1281 1286 1288 1289 1290 1292 1293 1294 1298 1301 1302 1304 1309 1311 1312 1313 1315 1316 1317 1321 1324 1325 1327 1332 1334 1335 1336 1338 1339 1340 1344 1347 1348 1349 1350 40 1355 1357 1358 1359 1361 1362 1363 1367 1370 1371 1372 1373 1378 1380 1381 1382 1384 1385 1386 1390 1393 1394 1395 1396 1399 1400 1401 1403 1404 1405 1407 1408 1409 1413 1416 1417 1418 1419 1422 1423 1425 1426 1427 1428 1430 1431 1432 1436 1439 1440 1441 1442 1445 1446 1448 1449 44 1451 1453 1454 1455 1459 1462 1463 1464 1465 1468 1469 1471 1472 1476 1477 1478 1482 1485 1486 1487 1488 1491 1492 1494 1495 1499 1500 46 1501 1505 1508 1509 1510 1511 1514 1515 1517 1518 1522 1523 1524 1528 1531 1532 1533 1534 1537 1538 1540 1541 1545 1546 1547 1551 1554 1555 1556 1557 1560 1561 1563 1564 1568 1569 1570 1577 1578 1579 1580 1583 1584 1586 1587 1591 1592 1593 1599 1600 1601 1602 1603 1606 1607 1609 1610 1614 1615 1616 1622 1623 1626 1629 1630 1632 1633 1637 1638 1639 1645 1646 1649 52 1652 1653 1655 1656 1660 1661 1662 1668 1669 1672 1675 53 1676 1678 1679 1683 1684 1685 1691 1692 1695 1698 1701 1708 1710 1712 1714 1715 1716 1718 1719 1723 1724 55 1725 1726 1727 1737 1740 1742 1744 1745 1749 1750 1751 1752 1753 1757 1759 1761 1763 1765 1767 1768 1769 57 1770 1772 1773 1775 1776 1777 1780 1781 1782 1786 1787 1788 1790 58 1792 1794 1795 1798 1801 1802 1803 1805 1806 1807 1809 59 1812 1813 1816 1818 1820 1823 1824 1826 60 1832 1834 1835 1837 1838 1842 1843 1844 1845 1846 1847 61 1852 1856 1857 1858 1859 1860 1861 1862 1863 1864 62 1866 1867 1868 1869 1873 1874 1878 1880 1881 1882 1883 1887 1891 1893 64 1896 1897 1898 1900 1904 1907 65 1911 1912 1915 1918 1923 1924 1925 1927 1929 1931 67 1936 1938 1940 1944 1945 68 1946 1947 1949 1951 1952 1954 1955 1956 1958 1959 1961 1962 1964 70 1968 1969 1970 1971 1972 1973 1974 1975 1976 72 1980 1981 1983 1984 1985 1986 1989 1990 1992 1993 1994 75 1997 76 1998 1999 77 78 0
x 1051 1053 1054 1055 1056 1059 1060 1063 1065 1067 1068 1069 1070 1072 1074 1075 1082 1083 1084 1085 1086 1088 1089 1092 1094 1097 1098 1099 1101 1102 1103 1105 1106 1107 1111 1112 1113 1114 1118 1119 1120 1121 1122 1123 1127 1128 1129 1130 1132 1133 1134 1135 1136 1138 1139 1144 1145 1146 1147 1149 1150 1152 1153 1155 1158 1159 1163 1165 1166 1168 1169 1170 1171 1172 1175 1176 1178 1180 1182 1185 1187 1188 1190 1192 1193 1194 1197 1201 1203 1204 1208 1209 1214 1216 1217 1219 1220 1221 1222 1224 1225 1226 1227 1228 1229 1231 1232 1233 1234 1235 1238 1240 1242 1244 1246 1247 1248 1249 1250 1251 1253 1254 1255 1256 1259 1262 1265 1271 1272 37 1276 1278 1279 1280 1282 1287 1289 1290 1291 1293 1294 1295 1299 38 1301 1302 1303 1305 1310 1312 1313 1314 1316 1317 1318 1322 1325 39 1326 1328 1333 1335 1336 1337 1339 1340 1341 1345 1348 1349 1350 40 1351 1356 1358 1359 1360 1362 1363 1364 1368 1371 1372 1373 1374 41 1379 1381 1382 1383 1385 1386 1387 1391 1394 1395 1396 1397 1400 42 1402 1404 1405 1406 1408 1409 1410 1414 1417 1418 1419 1420 1423 1424 43 1427 1428 1429 1431 1432 1433 1437 1440 1441 1442 1443 1446 1447 1449 1450 1451 1452 1454 1455 1456 1460 1463 1464 1465 1466 1469 1470 1472 1473 1477 1478 1479 1483 1486 1487 1488 1489 1492 1493 1495 1496 1500 1501 1502 1506 1509 1510 1511 1512 1515 1516 1518 1519 1523 1524 1525 1529 1532 1533 1534 1535 1538 1539 1541 1542 1546 1547 1548 48 1552 1555 1556 1557 1558 1561 1562 1564 1565 1569 1570 1571 1578 1579 1580 1581 1584 1585 1587 1588 1592 1593 1594 1600 1601 1602 1603 1604 1607 1608 1610 1611 1615 1616 1617 1623 1624 1626 1627 1630 1631 1633 1634 1638 1639 1640 1646 1647 1650 52 1653 1654 1656 1657 1661 1662 1663 1669 1670 1673 53 1676 1677 1679 1680 1684 1685 1686 1692 1693 1696 1699 54 1703 1704 1706 1707 1709 1713 1716 1717 1723 55 1725 1726 1727 1729 1731 1732 1734 1737 1739 1740 1741 1742 1743 1744 1746 1747 1748 1752 1753 1754 1755 1758 1759 1760 1762 1763 1766 1767 57 1770 1777 1778 1779 1780 1783 1784 1786 1788 1791 1793 1796 1802 1806 1809 1810 1811 1812 1813 1818 1820 1821 1822 1831 1833 1836 1838 1840 1846 1848 1851 1852 1854 1856 1857 1860 1862 1863 62 1868 1869 1870 1871 1872 1874 1876 1877 1881 1886 1889 1891 1892 1895 1897 1898 1900 1901 1903 1904 1907 1908 65 1910 1913 1914 1915 1916 1917 1919 1920 1921 1922 66 1923 1925 1926 1927 1929 1930 1931 1932 1934 1936 1941 1942 1943 1944 1945 1949 1950 1951 1952 1953 1954 1955 69 1959 1961 1963 70 1965 1967 1969 1971 1972 1977 1979 72 1981 1984 1985 73 1986 1987 1989 1990 74 1993 1994 1995 1997 1999 77 2000 78 0
x 1052 1053 1054 1057 1058 1059 1060 1061 1062 1063 1065 1068 1071 1072 1073 1075 1076 1077 1079 1080 1082 1084 1085 1088 1094 1095 1096 1098 1099 1100 1102 1108 1110 1111 1115 1117 1118 1119 1121 1122 1123 1124 1125 31 1127 1129 1133 1138 1139 1140 1141 1142 1144 1145 1146 1147 1148 1149 1150 1151 1152 1153 1155 1156 1158 1161 1162 1164 1165 1167 1168 1169 1170 1171 1172 1176 1177 1178 1181 1182 1184 1185 1188 1190 1191 1192 1193 1194 1195 1197 1198 1203 1204 1205 1206 1207 1208 1213 1214 1215 1216 1217 1218 1220 1222 1223 1226 1228 1229 1231 1235 1236 1237 1238 1239 1240 1241 1243 1247 1248 1252 1258 1260 1261 1262 1263 1264 1266 1269 1272 1274 1275 1276 1277 1279 1280 1281 1283 1288 1290 1291 1292 1294 1295 1296 1300 38 1302 1303 1304 1306 1311 1313 1314 1315 1317 1318 1319 1323 1326 1327 1329 1334 1336 1337 1338 1340 1341 1342 1346 1349 1350 40 1352 1357 1359 1360 1361 1363 1364 1365 1369 1372 1373 1374 1375 1380 1382 1383 1384 1386 1387 1388 1392 1395 1396 1397 1398 42 1403 1405 1406 1407 1409 1410 1411 1415 1418 1419 1420 1421 1424 1425 1426 1428 1429 1430 1432 1433 1434 1438 1441 1442 1443 1444 1447 1448 1450 1451 1452 1453 1455 1456 1457 1461 1464 1465 1466 1467 1470 1471 1473 1474 45 1476 1478 1479 1480 1484 1487 1488 1489 1490 1493 1494 1496 1497 1501 1502 1503 1507 1510 1511 1512 1513 1516 1517 1519 1520 1524 1525 1526 1530 1533 1534 1535 1536 1539 1540 1542 1543 1547 1548 1549 48 1553 1556 1557 1558 1559 1562 1563 1565 1566 1570 1571 1572 1576 1579 1580 1581 1582 1585 1586 1588 1589 1593 1594 1595 1602 1603 1604 1605 1608 1609 1611 1612 1616 1617 1618 1624 1625 51 1626 1627 1628 1631 1632 1634 1635 1639 1640 1641 1647 1648 1651 1654 1655 1657 1658 1662 1663 1664 1670 1671 1674 1677 1678 1680 1681 1685 1686 1687 1693 1694 1697 1700 54 1702 1703 1704 1705 1706 1708 1709 1712 1714 1715 1716 1720 1722 1723 1724 55 1725 1728 1729 1732 1733 1734 1735 1740 1741 1744 1745 1746 56 1749 1750 1751 1755 1762 1763 1766 1768 1769 1772 1776 1778 1779 1781 1787 1788 1790 1791 1792 1793 1796 1797 1799 1800 1801 1802 1803 1804 1806 1809 1810 59 1812 1813 1818 1819 1821 1826 1827 1828 60 1830 1834 1835 1836 1838 1839 1840 1841 1842 1843 1845 1847 1848 1849 1853 1855 1856 1858 1860 1862 1863 1867 1868 1871 1873 1874 1878 1880 63 1886 1891 1893 1894 64 1896 1897 1899 1900 1901 1903 1904 1911 1912 1913 1914 1915 1921 1922 66 1928 1929 1930 1931 1934 1935 1937 1938 1939 1940 1943 1944 68 1946 1947 1949 1950 1951 1955 69 1956 1957 1958 1962 1963 1964 1965 1966 1969 1972 71 1974 1977 1978 1980 1981 73 1988 1990 1993 1994 1996 1999 78 0
x -1052 1054 1058 1061 1063 1065 1068 1070 1073 1074 1076 1078 1079 1080 1081 1084 1085 1088 1090 1092 1093 1094 1095 1097 1099 1100 1107 1108 1109 1110 1111 1113 1114 1117 1119 1122 1123 1124 1126 1127 1128 1130 1131 1132 1136 1137 1138 1139 1143 1144 1145 1146 1147 1148 1152 1153 1154 1155 1157 1158 1159 1160 1161 1163 1164 1169 1170 1171 1172 1174 1175 1177 1178 1180 1183 1184 1188 1190 1191 1193 1194 1195 1196 1197 1200 1201 1203 1205 1207 1210 1212 1213 1215 1217 1218 1219 1222 1226 1228 1229 1233 1234 1239 1241 1242 1244 1245 1246 1247 1249 1250 1251 1252 1253 1254 1256 1257 1258 1259 1260 1263 1265 1267 1269 1271 1272 1273 1274 1275 37 1277 1278 1280 1281 1282 1284 1289 1291 1292 1293 1295 1296 1297 38 1301 1303 1304 1305 1307 1312 1314 1315 1316 1318 1319 1320 1324 39 1326 1327 1328 1330 1335 1337 1338 1339 1341 1342 1343 1347 1350 1351 1353 1358 1360 1361 1362 1364 1365 1366 1370 1373 1374 1375 41 1376 1381 1383 1384 1385 1387 1388 1389 1393 1396 1397 1398 1399 1404 1406 1407 1408 1410 1411 1412 1416 1419 1420 1421 1422 1425 43 1427 1429 1430 1431 1433 1434 1435 1439 1442 1443 1444 1445 1448 1449 44 1452 1453 1454 1456 1457 1458 1462 1465 1466 1467 1468 1471 1472 1474 1475 45 1476 1477 1479 1480 1481 1485 1488 1489 1490 1491 1494 1495 1497 1498 46 1502 1503 1504 1508 1511 1512 1513 1514 1517 1518 1520 1521 1525 1526 1527 1531 1534 1535 1536 1537 1540 1541 1543 1544 1548 1549 1550 48 1554 1557 1558 1559 1560 1563 1564 1566 1567 1571 1572 1573 1577 1580 1581 1582 1583 1586 1587 1589 1590 1594 1595 1596 1603 1604 1605 1606 1609 1610 1612 1613 1617 1618 1619 1625 51 1626 1627 1628 1629 1632 1633 1635 1636 1640 1641 1642 1648 1649 1651 1652 1655 1656 1658 1659 1663 1664 1665 1671 1672 1675 53 1678 1679 1681 1682 1686 1687 1688 1694 1695 1698 54 1706 1708 1709 1710 1712 1713 1715 1717 1720 1723 55 1725 1732 1734 1736 1738 1739 1740 1742 1743 1747 56 1748 1749 1750 1760 1763 1765 1767 1768 57 1771 1772 1773 1774 1775 1779 1781 1783 1785 1787 1789 1790 58 1791 1793 1794 1796 1797 1798 1801 1802 1803 1807 1808 1809 59 1812 1814 1815 1818 1821 1822 1823 1825 1826 1827 1829 60 1831 1832 1835 1837 1839 1842 1843 1845 1850 1852 1853 1855 1856 1860 1861 1862 1863 1864 1869 1873 1874 1875 1876 1877 1878 1879 1880 63 1882 1883 1884 1885 1889 1890 1894 1896 1897 1898 1902 1906 1908 65 1910 1911 1912 1914 1918 1921 1924 1925 1928 1931 1935 1936 1937 1939 1941 1943 1947 1949 1951 1955 69 1956 1957 1959 1961 1962 1964 1965 1967 1968 1970 1971 1976 1977 1978 1979 72 1980 1981 1982 1983 1986 1987 1989 1990 74 1991 1994 1996 1997 2000 0
x 1053 1054 1055 1056 1057 1060 1062 1063 1065 1067 1069 1070 1073 1074 1075 1077 1078 1079 1082 1083 1084 1085 1086 1087 1088 1090 1093 1096 1097 1098 1100 1101 1102 1104 1105 1107 1109 1110 1113 1119 1120 1121 1123 1124 1125 1127 1133 1135 1136 1140 1142 1143 1144 1146 1147 1148 1149 1150 1152 1154 1158 1163 1164 1165 1166 1167 1169 1170 1171 1172 1173 1174 1175 1176 1177 1178 1180 1181 1183 1186 1187 1189 1190 1192 1193 1194 1195 1196 1197 1201 1202 1203 1206 1207 1209 1210 1213 1215 1216 1217 1218 1219 1220 1222 1223 1228 1229 1230 1231 1232 1233 1238 1239 1240 1241 1242 1243 1245 1247 1248 1251 1253 1254 1256 1260 1261 1262 1263 1264 1265 1266 1268 1272 1273 1278 1279 1281 1282 1283 1285 1290 1292 1293 1294 1296 1297 1298 1301 1302 1304 1305 1306 1308 1313 1315 1316 1317 1319 1320 1321 1325 1327 1328 1329 1331 1336 1338 1339 1340 1342 1343 1344 1348 1351 1352 1354 1359 1361 1362 1363 1365 1366 1367 1371 1374 1375 41 1377 1382 1384 1385 1386 1388 1389 1390 1394 1397 1398 1399 1400 42 1405 1407 1408 1409 1411 1412 1413 1417 1420 1421 1422 1423 1428 1430 1431 1432 1434 1435 1436 1440 1443 1444 1445 1446 1449 1450 44 1451 1453 1454 1455 1457 1458 1459 1463 1466 1467 1468 1469 1472 1473 1475 45 1476 1477 1478 1480 1481 1482 1486 1489 1490 1491 1492 1495 1496 1498 1499 46 1501 1503 1504 1505 1509 1512 1513 1514 1515 1518 1519 1521 1522 47 1526 1527 1528 1532 1535 1536 1537 1538 1541 1542 1544 1545 1549 1550 1551 1555 1558 1559 1560 1561 1564 1565 1567 1568 1572 1573 1574 49 1578 1581 1582 1583 1584 1587 1588 1590 1591 1595 1596 1597 1601 1604 1605 1606 1607 1610 1611 1613 1614 1618 1619 1620 1627 1628 1629 1630 1633 1634 1636 1637 1641 1642 1643 1649 1650 1651 1652 1653 1656 1657 1659 1660 1664 1665 1666 1672 1673 53 1676 1679 1680 1682 1683 1687 1688 1689 1695 1696 1699 1703 1704 1708 1709 1714 1717 1719 1723 1727 1728 1730 1731 1733 1737 1740 1741 1747 1748 1749 1750 1752 1754 1755 1757 1760 1762 1763 1764 1765 1766 1767 1769 57 1770 1774 1775 1776 1777 1780 1781 1782 1784 1785 1788 1789 1791 1798 1799 1800 1801 1804 1805 1807 1809 59 1811 1813 1816 1822 1826 1829 60 1830 1831 1832 1837 1839 1840 1841 1849 1851 1854 1856 1858 1864 62 1865 1868 1869 1871 1873 1874 1877 1879 1880 63 1884 1885 1886 1887 1888 1890 1892 1893 64 1896 1901 1904 1906 1907 1911 1912 1914 1915 1917 1918 1921 1922 66 1923 1926 1927 1928 1929 1930 1932 1933 1934 1935 1937 1938 1939 1941 1942 1943 1944 1947 1952 1953 1954 1955 1959 1960 1961 1962 1963 1964 1968 1970 1972 1973 1975 1977 1979 1984 1987 1990 1991 1992 1994 75 1997 76 1998 78 0
x 1053 1055 1057 1058 1060 1064 1065 1067 1068 1069 1073 1074 1075 1077 1079 1083 1086 1088 1090 1093 1095 1098 1099 1101 1103 1104 1105 1106 1109 1110 1113 1115 1117 1118 1119 1120 1122 1124 1125 1132 1133 1134 1135 1136 1138 1139 1142 1144 1147 1148 1149 1151 1152 1153 1155 1156 1157 1161 1162 1163 1164 1168 1169 1170 1171 1172 1173 1177 1178 1179 1180 1182 1183 1184 1185 1186 1188 1189 1194 1195 1196 1197 1199 1200 1202 1203 1205 1208 1209 1213 1215 1216 1218 1219 1220 1221 1222 1225 1226 1228 1230 1232 1235 1237 1238 1240 1242 1243 1244 1247 1251 1253 1254 1258 1259 1264 1266 1267 1269 1270 1271 1272 1274 1275 37 1276 1279 1280 1282 1283 1284 1286 1291 1293 1294 1295 1297 1298 1299 1302 1303 1305 1306 1307 1309 1314 1316 1317 1318 1320 1321 1322 1326 1328 1329 1330 1332 1337 1339 1340 1341 1343 1344 1345 1349 1351 1352 1353 1355 1360 1362 1363 1364 1366 1367 1368 1372 1375 1376 1378 1383 1385 1386 1387 1389 1390 1391 1395 1398 1399 1400 1401 1406 1408 1409 1410 1412 1413 1414 1418 1421 1422 1423 1424 1429 1431 1432 1433 1435 1436 1437 1441 1444 1445 1446 1447 1450 44 1452 1454 1455 1456 1458 1459 1460 1464 1467 1468 1469 1470 1473 1474 1477 1478 1479 1481 1482 1483 1487 1490 1491 1492 1493 1496 1497 1499 1500 1501 1502 1504 1505 1506 1510 1513 1514 1515 1516 1519 1520 1522 1523 1527 1528 1529 1533 1536 1537 1538 1539 1542 1543 1545 1546 1550 48 1551 1552 1556 1559 1560 1561 1562 1565 1566 1568 1569 1573 1574 1575 1579 1582 1583 1584 1585 1588 1589 1591 1592 1596 1597 1598 1602 1605 1606 1607 1608 1611 1612 1614 1615 1619 1620 1621 1628 1629 1630 1631 1634 1635 1637 1638 1642 1643 1644 1650 1651 1652 1653 1654 1657 1658 1660 1661 1665 1666 1667 1673 1674 1676 1677 1680 1681 1683 1684 1688 1689 1690 1696 1697 1700 1706 1708 1710 1713 1715 1717 1718 1720 1721 1722 1724 55 1726 1727 1728 1729 1730 1732 1733 1736 1738 1739 1740 1744 1746 1747 1748 1751 1752 1755 1756 1757 1758 1763 1764 1767 1768 1769 1771 1772 1773 1777 1784 1785 1788 1790 58 1793 1797 1799 1800 1802 1808 1809 59 1811 1812 1813 1816 1817 1819 1820 1821 1822 1823 1824 1826 1829 1831 1832 1837 1838 1840 1845 1846 1847 1848 1852 1853 1854 1856 1857 1858 1859 1860 1861 1863 62 1865 1866 1870 1872 1873 1875 1877 1879 1880 1883 1884 1887 1889 1890 1894 1901 1906 1908 1909 65 1910 1911 1913 1914 1915 1917 1918 66 1924 1925 1926 1927 1928 1934 67 1940 1941 1942 1943 1946 1948 1949 1950 1951 1954 1955 69 1956 1957 1959 1960 1961 1965 1966 1967 1971 1972 1973 1974 1977 72 1981 1984 1985 73 1986 1987 74 1993 1997 1999 0
x 1052 1054 1055 1056 1057 1059 1060 1064 1067 1069 1070 1071 1072 1075 1078 1079 1080 1081 1082 1085 1087 1088 1090 1092 1094 1095 1098 1099 1100 1102 1103 1104 1107 1108 1109 1110 1111 1112 1113 1115 1118 1121 1122 1123 1125 1126 1127 1129 1130 1132 1134 1135 1138 1144 1145 1146 1148 1149 1150 32 1152 1158 1160 1161 1165 1167 1168 1169 1171 1172 1173 1174 1175 1177 1179 1183 1188 1189 1190 1191 1192 1194 1195 1196 1197 1198 1199 1200 1201 1202 1203 1205 1206 1208 1211 1212 1214 1215 1217 1218 1219 1220 1221 1222 1226 1227 1228 1231 1232 1234 1235 1238 1240 1241 1242 1243 1244 1245 1247 1248 1253 1254 1255 1256 1257 1258 1263 1264 1265 1266 1267 1268 1270 1272 1273 37 1277 1280 1281 1283 1284 1285 1287 1292 1294 1295 1296 1298 1299 1300 1303 1304 1306 1307 1308 1310 1315 1317 1318 1319 1321 1322 1323 1326 1327 1329 1330 1331 1333 1338 1340 1341 1342 1344 1345 1346 1350 1352 1353 1354 1356 1361 1363 1364 1365 1367 1368 1369 1373 41 1376 1377 1379 1384 1386 1387 1388 1390 1391 1392 1396 1399 1400 1402 1407 1409 1410 1411 1413 1414 1415 1419 1422 1423 1424 1425 1430 1432 1433 1434 1436 1437 1438 1442 1445 1446 1447 1448 1453 1455 1456 1457 1459 1460 1461 1465 1468 1469 1470 1471 1474 1475 45 1476 1478 1479 1480 1482 1483 1484 1488 1491 1492 1493 1494 1497 1498 1500 46 1501 1502 1503 1505 1506 1507 1511 1514 1515 1516 1517 1520 1521 1523 1524 47 1526 1528 1529 1530 1534 1537 1538 1539 1540 1543 1544 1546 1547 1551 1552 1553 1557 1560 1561 1562 1563 1566 1567 1569 1570 1574 1575 49 1576 1580 1583 1584 1585 1586 1589 1590 1592 1593 1597 1598 1599 50 1603 1606 1607 1608 1609 1612 1613 1615 1616 1620 1621 1622 1626 1629 1630 1631 1632 1635 1636 1638 1639 1643 1644 1645 52 1652 1653 1654 1655 1658 1659 1661 1662 1666 1667 1668 1674 1675 1676 1677 1678 1681 1682 1684 1685 1689 1690 1691 1697 1698 54 1701 1704 1705 1707 1708 1712 1716 1717 1720 1721 1723 1724 55 1730 1732 1733 1734 1736 1737 1739 1741 1744 1747 1748 1755 1757 1759 1761 1762 1763 1765 1766 1770 1771 1772 1782 1785 1787 1789 1790 1792 1793 1794 1795 1796 1800 1802 1804 1806 1808 1810 59 1811 1813 1814 1816 1817 1818 1821 1822 1823 1827 1828 1829 60 1831 1833 1834 1837 1840 1841 1842 1844 1845 1846 61 1849 1850 1853 1855 1857 1860 1861 1863 62 1867 1869 1870 1872 1873 1877 1878 1879 1880 63 1885 1889 1890 1891 1892 1893 1894 1895 1897 1898 1899 1900 1904 1905 1909 1910 1911 1912 1916 1920 1922 66 1923 1924 1925 1927 1931 1934 67 1936 1937 1940 1943 1946 1947 1948 1950 1952 1954 1957 1959 1961 1965 1966 1968 1970 1971 71 1973 1975 1976 1978 1979 72 1983 1984 1985 1986 1987 1988 1989 1991 1992 1994 75 1995 76 1999 77 78 0
x -1051 1053 1054 1056 1058 1060 1062 1064 1065 1066 1067 1073 1074 1078 1080 1082 1083 1085 1089 1090 1092 1093 1094 1098 1099 1100 1102 1104 1108 1111 1113 1115 1118 1120 1123 1124 1126 1128 1129 1130 1131 1134 1135 1138 1140 1142 1143 1144 1145 1147 1149 1150 1157 1158 1159 1160 1161 1163 1164 1167 1169 1172 1173 1174 1176 1177 1178 1180 1181 1182 1186 1187 1188 1189 1193 1194 1195 1196 1197 1198 1202 1203 1204 1205 1207 1208 1209 1210 1211 1213 1214 1219 1220 1221 1222 1224 1225 1227 1228 1230 1233 1234 1238 1240 1241 1243 1244 1245 1246 1247 1250 1251 1253 1255 1257 1260 1262 1263 1265 1267 1268 1269 1272 37 1276 1278 1281 1282 1284 1285 1286 1288 1293 1295 1296 1297 1299 1300 1301 1304 1305 1307 1308 1309 1311 1316 1318 1319 1320 1322 1323 1324 1327 1328 1330 1331 1332 1334 1339 1341 1342 1343 1345 1346 1347 1351 1353 1354 1355 1357 1362 1364 1365 1366 1368 1369 1370 1374 41 1376 1377 1378 1380 1385 1387 1388 1389 1391 1392 1393 1397 1400 1401 1403 1408 1410 1411 1412 1414 1415 1416 1420 1423 1424 1425 43 1426 1431 1433 1434 1435 1437 1438 1439 1443 1446 1447 1448 1449 1454 1456 1457 1458 1460 1461 1462 1466 1469 1470 1471 1472 1475 45 1477 1479 1480 1481 1483 1484 1485 1489 1492 1493 1494 1495 1498 1499 46 1502 1503 1504 1506 1507 1508 1512 1515 1516 1517 1518 1521 1522 1524 1525 47 1526 1527 1529 1530 1531 1535 1538 1539 1540 1541 1544 1545 1547 1548 1552 1553 1554 1558 1561 1562 1563 1564 1567 1568 1570 1571 1575 1576 1577 1581 1584 1585 1586 1587 1590 1591 1593 1594 1598 1599 1600 50 1604 1607 1608 1609 1610 1613 1614 1616 1617 1621 1622 1623 1627 1630 1631 1632 1633 1636 1637 1639 1640 1644 1645 1646 52 1653 1654 1655 1656 1659 1660 1662 1663 1667 1668 1669 1675 1676 1677 1678 1679 1682 1683 1685 1686 1690 1691 1692 1698 1699 54 1702 1707 1708 1710 1713 1714 1717 1721 1723 1724 1727 1728 1732 1733 1738 1741 1743 1747 1750 1751 1753 1754 1756 1760 1763 1764 57 1770 1771 1772 1774 1776 1777 1779 1782 1784 1785 1786 1787 1788 1789 1791 1795 1796 1797 1798 1801 1802 1803 1805 1806 1809 1810 59 1811 1818 1819 1820 1821 1824 1825 1827 1829 60 1830 1832 1835 1841 1845 61 1848 1849 1850 1855 1857 1858 1859 1866 1868 1871 1873 1875 63 1881 1884 1885 1887 1889 1890 1893 1895 64 1899 1900 1901 1902 1903 1905 1907 1908 65 1910 1915 1918 1920 1921 66 1924 1925 1927 1928 1930 1931 1934 1935 1938 1939 1940 1941 1942 1944 1945 68 1946 1948 1949 1950 1952 1953 1954 1955 69 1957 1962 1963 1964 1968 1969 1970 1971 1972 1976 1978 72 1980 1982 1984 73 1990 1992 75 1995 1996 2000 0
x -1051 1053 1054 1055 1056 1057 1058 1062 1063 1069 1072 1073 1074 1077 1079 1080 1081 1082 1084 1085 1089 1092 1094 1095 1096 1097 1100 1103 1104 1105 1106 1107 1110 1112 1113 1115 1117 1119 1120 1123 1124 1125 1127 1128 1129 1132 1133 1134 1135 1136 1137 1138 1140 1143 1146 1147 1148 1150 1151 1152 1154 1155 1157 1159 1160 1163 1169 1170 1171 1173 1174 1175 1177 1183 1185 1186 1190 1192 1193 1194 1196 1197 1198 1199 1200 1202 1204 1208 1213 1214 1215 1216 1217 1219 1220 1221 1222 1223 1224 1225 1226 1227 1228 1230 1231 1233 1236 1237 1239 1240 1242 1243 1244 1245 1246 1247 1251 1252 1253 1256 1257 1259 1260 1263 1265 1266 1267 1268 1269 1270 1272 1273 37 1277 1279 1282 1283 1285 1286 1287 1289 1294 1296 1297 1298 1300 38 1302 1305 1306 1308 1309 1310 1312 1317 1319 1320 1321 1323 1324 1325 1328 1329 1331 1332 1333 1335 1340 1342 1343 1344 1346 1347 1348 40 1351 1352 1354 1355 1356 1358 1363 1365 1366 1367 1369 1370 1371 1375 1377 1378 1379 1381 1386 1388 1389 1390 1392 1393 1394 1398 42 1401 1402 1404 1409 1411 1412 1413 1415 1416 1417 1421 1424 1425 43 1427 1432 1434 1435 1436 1438 1439 1440 1444 1447 1448 1449 1450 44 1455 1457 1458 1459 1461 1462 1463 1467 1470 1471 1472 1473 45 1478 1480 1481 1482 1484 1485 1486 1490 1493 1494 1495 1496 1499 1500 1501 1503 1504 1505 1507 1508 1509 1513 1516 1517 1518 1519 1522 1523 1525 47 1526 1527 1528 1530 1531 1532 1536 1539 1540 1541 1542 1545 1546 1548 1549 1551 1553 1554 1555 1559 1562 1563 1564 1565 1568 1569 1571 1572 1576 1577 1578 1582 1585 1586 1587 1588 1591 1592 1594 1595 1599 1600 50 1601 1605 1608 1609 1610 1611 1614 1615 1617 1618 1622 1623 1624 51 1628 1631 1632 1633 1634 1637 1638 1640 1641 1645 1646 1647 1651 1654 1655 1656 1657 1660 1661 1663 1664 1668 1669 1670 1677 1678 1679 1680 1683 1684 1686 1687 1691 1692 1693 1699 1700 1702 1703 1705 1706 1708 1710 1711 1712 1713 1714 1719 1720 1721 1722 1723 1724 1730 1732 1734 1737 1739 1741 1742 1744 1745 1746 1749 1750 1751 1752 1753 1755 1756 1759 1761 1762 1763 1767 1769 57 1770 1773 1774 1777 1778 1779 1780 1785 1786 1789 1790 58 1792 1793 1794 1798 1805 1806 1809 59 1813 1817 1819 1820 1822 1828 1829 1830 1831 1832 1835 1836 1838 1839 1840 1841 1842 1843 1845 61 1849 1850 1855 1856 1858 1863 1864 62 1865 1869 1870 1871 1873 1874 1875 1876 1877 1878 1880 63 1881 1882 1886 1888 1889 1891 1893 1895 1898 1899 1902 1904 1905 1909 65 1915 1920 1922 1923 1924 1926 1927 1928 1930 1931 1936 1937 1938 1939 1940 1951 1952 1953 1954 69 1956 1958 1959 1960 1961 1964 1965 1966 1968 1969 1970 71 1973 1974 1975 1979 72 1980 1981 1984 73 1987 1990 1991 1992 1997 76 0
x -1052 1054 1057 1059 1062 1064 1065 1067 1068 1069 1070 1071 1072 1074 1076 1078 1079 1081 1083 1085 1087 1089 1090 1091 1092 1098 1099 1103 1105 1107 1108 1110 1114 1115 1117 1118 1119 1123 1124 1125 1127 1129 1133 1136 1138 1140 1143 1145 1148 1149 1151 1153 1154 1155 1156 1159 1160 1163 1165 1167 1168 1169 1170 1172 1174 1175 1182 1183 1184 1185 1186 1188 1189 1192 1194 1197 1198 1199 1201 1202 1203 1205 1206 1207 1211 1212 1213 1214 1218 1219 1220 1221 1222 1223 1227 1228 1229 1230 1232 1233 1234 1235 1236 1238 1239 1244 1245 1246 1247 1249 1250 1252 1253 1255 1258 1259 1263 1265 1266 1268 1269 1270 1271 1272 1275 37 1276 1278 1280 1283 1284 1286 1287 1288 1290 1295 1297 1298 1299 1301 1303 1306 1307 1309 1310 1311 1313 1318 1320 1321 1322 1324 1325 39 1326 1329 1330 1332 1333 1334 1336 1341 1343 1344 1345 1347 1348 1349 40 1352 1353 1355 1356 1357 1359 1364 1366 1367 1368 1370 1371 1372 41 1376 1378 1379 1380 1382 1387 1389 1390 1391 1393 1394 1395 1399 42 1401 1402 1403 1405 1410 1412 1413 1414 1416 1417 1418 1422 1425 43 1426 1428 1433 1435 1436 1437 1439 1440 1441 1445 1448 1449 1450 44 1451 1456 1458 1459 1460 1462 1463 1464 1468 1471 1472 1473 1474 1479 1481 1482 1483 1485 1486 1487 1491 1494 1495 1496 1497 1500 1502 1504 1505 1506 1508 1509 1510 1514 1517 1518 1519 1520 1523 1524 1527 1528 1529 1531 1532 1533 1537 1540 1541 1542 1543 1546 1547 1549 1550 1551 1552 1554 1555 1556 1560 1563 1564 1565 1566 1569 1570 1572 1573 49 1577 1578 1579 1583 1586 1587 1588 1589 1592 1593 1595 1596 1600 50 1601 1602 1606 1609 1610 1611 1612 1615 1616 1618 1619 1623 1624 1625 51 1629 1632 1633 1634 1635 1638 1639 1641 1642 1646 1647 1648 1652 1655 1656 1657 1658 1661 1662 1664 1665 1669 1670 1671 1678 1679 1680 1681 1684 1685 1687 1688 1692 1693 1694 1700 1703 1704 1708 1709 1710 1712 1713 1714 1719 1720 1721 1722 1725 1728 1729 1731 1732 1736 1740 1741 1744 1745 1747 56 1753 1755 1756 1757 1759 1760 1762 1764 1767 57 1770 1777 1779 1781 1783 1784 1785 1787 1788 58 1791 1792 1793 1803 1806 1808 1810 1812 1813 1814 1815 1816 1820 1822 1824 1826 1828 1830 1832 1833 1835 1836 1837 1840 1841 1842 1846 1847 1849 1851 1852 1855 1858 1859 1860 1862 1863 1864 1866 1867 1870 1872 1874 1877 1878 1880 1883 1885 1886 1888 1889 1893 1894 1895 1900 1904 1905 1906 1907 1908 1909 65 1911 1912 1913 1914 1918 1919 1923 1924 1925 1929 1933 67 1935 1936 1937 1939 1943 68 1947 1948 1951 1954 69 1956 1957 1958 1960 1962 1964 1966 1968 1970 71 1973 1974 1976 1978 1979 1980 1982 1983 1985 73 1989 1990 74 1991 1992 1993 1994 75 1995 1996 76 1998 77 78 0
x -1051 1054 1055 1057 1058 1059 1062 1065 1067 1071 1072 1074 1075 1076 1078 1079 1080 1081 1082 1083 1087 1088 1094 1097 1098 1099 1102 1104 1105 1106 1107 1109 1110 1114 1117 1119 1120 1121 1122 1125 1128 1129 1130 1131 1132 1135 1137 1138 1140 1142 1144 1145 1148 1149 1150 1152 1153 1154 1157 1158 1159 1160 1161 1162 1163 1165 1168 1171 1172 1173 1175 33 1176 1177 1179 1180 1182 1184 1185 1188 1194 1195 1196 1198 1199 1200 1202 1208 1210 1211 1215 1217 1218 1219 1221 1222 1223 1224 1225 1227 1229 1233 1238 1239 1240 1241 1242 1244 1245 1246 1247 1248 1249 1250 1251 1252 1253 1255 1256 1258 1261 1262 1264 1265 1267 1268 1269 1270 1271 1272 1277 1279 1281 1284 1285 1287 1288 1289 1291 1296 1298 1299 1300 1302 1304 1307 1308 1310 1311 1312 1314 1319 1321 1322 1323 1325 39 1327 1330 1331 1333 1334 1335 1337 1342 1344 1345 1346 1348 1349 1350 1353 1354 1356 1357 1358 1360 1365 1367 1368 1369 1371 1372 1373 41 1376 1377 1379 1380 1381 1383 1388 1390 1391 1392 1394 1395 1396 1400 42 1402 1403 1404 1406 1411 1413 1414 1415 1417 1418 1419 1423 1426 1427 1429 1434 1436 1437 1438 1440 1441 1442 1446 1449 1450 1452 1457 1459 1460 1461 1463 1464 1465 1469 1472 1473 1474 1475 45 1480 1482 1483 1484 1486 1487 1488 1492 1495 1496 1497 1498 46 1503 1505 1506 1507 1509 1510 1511 1515 1518 1519 1520 1521 1524 1525 1526 1528 1529 1530 1532 1533 1534 1538 1541 1542 1543 1544 1547 1548 1550 48 1551 1552 1553 1555 1556 1557 1561 1564 1565 1566 1567 1570 1571 1573 1574 49 1576 1578 1579 1580 1584 1587 1588 1589 1590 1593 1594 1596 1597 50 1601 1602 1603 1607 1610 1611 1612 1613 1616 1617 1619 1620 1624 1625 51 1626 1630 1633 1634 1635 1636 1639 1640 1642 1643 1647 1648 1649 52 1653 1656 1657 1658 1659 1662 1663 1665 1666 1670 1671 1672 53 1676 1679 1680 1681 1682 1685 1686 1688 1689 1693 1694 1695 54 1701 1703 1704 1705 1706 1707 1709 1715 1716 1719 1723 1724 55 1726 1731 1732 1734 1737 1738 1741 1745 1747 1750 1751 1755 1756 1761 1764 1766 57 1772 1773 1775 1776 1778 1782 1785 1786 58 1791 1792 1793 1795 1797 1798 1800 1803 1805 1806 1807 1808 1809 1810 1811 1815 1816 1817 1818 1821 1822 1823 1825 1826 1829 60 1830 1837 1838 1839 1840 1843 1844 1846 1848 1850 1853 1859 1863 62 1865 1866 1867 1872 1874 1875 1876 1882 1884 1887 1889 1891 1896 1899 1900 1902 1904 1905 1908 1913 1914 1915 1916 1917 1919 1921 1922 66 1923 1928 1931 1933 1934 1936 1937 1939 1940 1942 1943 1946 1949 1950 1951 1952 1953 1955 69 1956 1958 1959 1960 1962 1963 1964 1966 1971 1972 1976 1977 1978 1979 72 1983 1985 73 1986 1988 1990 1996 76 1998 1999 78 0
x 1051 1055 1057 1058 1060 1064 1069 1070 1074 1075 1077 1079 1082 1084 1087 1089 1090 1092 1093 1094 1095 1096 1097 1099 1101 1103 1104 1106 1108 1110 1112 1114 1115 1116 1117 1123 1124 1128 1130 1132 1133 1135 1139 1140 1142 1143 1144 1148 1149 1150 1152 1154 1158 1161 1163 1165 1168 1170 1173 1174 1176 1178 1179 1180 1181 1184 1185 1188 1190 1192 1193 1194 1195 1197 1199 1200 1207 1208 1209 1210 1211 1213 1214 1217 1219 1222 1223 1224 1226 1227 1228 1230 1231 1232 1236 1237 1238 1239 1243 1244 1245 1246 1247 1248 1252 1253 1254 1255 1257 1258 1259 1260 1261 1263 1264 1269 1270 1271 1272 1274 1275 37 1276 1278 1280 1282 1285 1286 1288 1289 1290 1292 1297 1299 1300 38 1301 1303 1305 1308 1309 1311 1312 1313 1315 1320 1322 1323 1324 39 1326 1328 1331 1332 1334 1335 1336 1338 1343 1345 1346 1347 1349 1350 40 1351 1354 1355 1357 1358 1359 1361 1366 1368 1369 1370 1372 1373 1374 41 1377 1378 1380 1381 1382 1384 1389 1391 1392 1393 1395 1396 1397 1401 1403 1404 1405 1407 1412 1414 1415 1416 1418 1419 1420 1424 43 1426 1427 1428 1430 1435 1437 1438 1439 1441 1442 1443 1447 1450 1451 1453 1458 1460 1461 1462 1464 1465 1466 1470 1473 1474 1475 45 1476 1481 1483 1484 1485 1487 1488 1489 1493 1496 1497 1498 1499 1504 1506 1507 1508 1510 1511 1512 1516 1519 1520 1521 1522 1525 47 1527 1529 1530 1531 1533 1534 1535 1539 1542 1543 1544 1545 1548 1549 48 1552 1553 1554 1556 1557 1558 1562 1565 1566 1567 1568 1571 1572 1574 1575 1576 1577 1579 1580 1581 1585 1588 1589 1590 1591 1594 1595 1597 1598 1602 1603 1604 1608 1611 1612 1613 1614 1617 1618 1620 1621 1625 1626 1627 1631 1634 1635 1636 1637 1640 1641 1643 1644 1648 1649 1650 52 1654 1657 1658 1659 1660 1663 1664 1666 1667 1671 1672 1673 53 1677 1680 1681 1682 1683 1686 1687 1689 1690 1694 1695 1696 54 1702 1704 1705 1706 1709 1710 1711 1712 1717 1726 1727 1729 1730 1732 1734 1735 1736 1737 1738 1743 1744 1745 1746 1747 56 1753 1755 1757 1760 1762 1764 1765 1767 1768 1769 1771 1772 1773 1774 1775 1777 1778 1781 1783 1784 1785 1789 1791 1794 1795 1798 1799 1800 1801 1806 1807 1810 59 1812 1813 1814 1818 1825 1826 1829 1832 1836 1838 1839 1841 1847 61 1848 1849 1850 1853 1854 1856 1857 1858 1859 1860 1861 1863 1866 1867 1872 1873 1875 1880 63 1881 1885 1886 1887 1889 1890 1891 1892 1893 1894 64 1896 1897 1901 1903 1904 1906 1908 1912 1913 1916 1918 1919 66 1928 1933 67 1935 1936 1938 1939 1940 1942 1943 1947 1948 1949 1950 1951 69 1961 1962 1963 1964 70 1965 1967 1968 1969 1970 1973 1974 1976 1977 1978 72 1980 1981 1982 73 1986 1987 1990 74 1992 1995 1996 78 0
x -1051 1052 1054 1055 1056 1059 1060 1063 1064 1065 1067 1068 1069 1074 1076 1079 1080 1082 1083 1084 1087 1090 1092 1096 1097 1099 1100 1101 1103 1104 1105 1106 1107 1108 1112 1113 1119 1122 1123 1124 1127 1129 1130 1131 1132 1134 1135 1139 1142 1144 1145 1146 1147 1150 1153 1154 1155 1156 1157 1160 1162 1163 1165 1167 1169 1170 1173 1174 1175 1177 1178 1179 1182 1183 1184 1185 1186 1187 1188 1190 1193 1196 1197 1198 1200 1201 1202 1204 1205 1207 1209 1210 1213 1219 1220 1221 1223 1224 1225 1227 1233 1235 1236 1240 1242 1243 1244 1246 1247 1248 1249 1250 1252 1254 1258 1263 1264 1265 1266 1267 1269 1270 1271 1272 1273 1274 1275 1277 1279 1281 1283 1286 1287 1289 1290 1291 1293 1298 1300 1302 1304 1306 1309 1310 1312 1313 1314 1316 1321 1323 1324 1325 1327 1329 1332 1333 1335 1336 1337 1339 1344 1346 1347 1348 1350 40 1352 1355 1356 1358 1359 1360 1362 1367 1369 1370 1371 1373 1374 1375 41 1378 1379 1381 1382 1383 1385 1390 1392 1393 1394 1396 1397 1398 42 1401 1402 1404 1405 1406 1408 1413 1415 1416 1417 1419 1420 1421 1425 43 1427 1428 1429 1431 1436 1438 1439 1440 1442 1443 1444 1448 44 1451 1452 1454 1459 1461 1462 1463 1465 1466 1467 1471 1474 1475 45 1477 1482 1484 1485 1486 1488 1489 1490 1494 1497 1498 1499 1500 1505 1507 1508 1509 1511 1512 1513 1517 1520 1521 1522 1523 1528 1530 1531 1532 1534 1535 1536 1540 1543 1544 1545 1546 1549 1550 1551 1553 1554 1555 1557 1558 1559 1563 1566 1567 1568 1569 1572 1573 1575 1576 1577 1578 1580 1581 1582 1586 1589 1590 1591 1592 1595 1596 1598 1599 50 1601 1603 1604 1605 1609 1612 1613 1614 1615 1618 1619 1621 1622 51 1626 1627 1628 1632 1635 1636 1637 1638 1641 1642 1644 1645 1649 1650 52 1651 1655 1658 1659 1660 1661 1664 1665 1667 1668 1672 1673 1674 53 1678 1681 1682 1683 1684 1687 1688 1690 1691 1695 1696 1697 54 1702 1703 1704 1705 1706 1708 1710 1713 1714 1715 1717 1718 1720 1721 1722 1723 1727 1728 1732 1733 1734 1736 1737 1738 1743 1744 1745 1746 1748 1751 1752 1754 1755 1759 1763 1764 1767 1768 57 1775 1777 1778 1779 1781 1782 1784 1786 1789 1791 1798 1800 1802 1804 1805 1806 1808 1809 59 1811 1812 1813 1823 1826 1828 1831 1832 1833 1834 1835 1839 1841 1843 1845 1847 1848 1850 1851 1853 1854 1855 1858 1859 1860 1864 62 1866 1868 1869 1872 1875 1876 1877 1879 1880 1882 1883 1886 1888 1890 1893 1894 64 1898 1900 1901 1903 1904 1908 1909 1914 1918 1919 1920 1921 1922 66 1924 1925 1926 1927 1931 1932 67 1935 1936 1937 1941 1945 68 1946 1947 1948 1950 1954 69 1957 1958 1961 1964 1965 1966 1967 1969 1971 1974 1976 1978 72 1980 1981 1983 1985 73 1986 1988 1989 1994 75 1995 1996 1997 1998 1999 2000 0
x -1051 1052 1055 1056 1058 1061 1066 1067 1068 1071 1073 1074 1076 1080 1082 1083 1085 1089 1094 1095 1099 1100 1102 1104 1107 1109 1112 1114 1115 1117 1118 1119 1120 1121 1122 1124 1126 1128 1129 1131 1133 1135 1137 1139 1140 1141 1142 1148 1149 1153 1155 1157 1158 1160 1164 1165 1167 1168 1169 1173 1174 1175 1177 1179 1183 1186 1188 1190 1193 1195 1198 1199 1201 1203 1204 1205 1206 1209 1210 1213 1215 1217 1218 1219 1220 1222 1224 1225 1232 1233 1234 1235 1236 1238 1239 1242 1244 1247 1248 1249 1251 1252 1253 1255 1256 1257 1261 1262 1263 1264 1268 1269 1270 1271 1272 1273 1278 1280 1282 1284 1287 1288 1290 1291 1292 1294 1299 1301 1303 1305 1307 1310 1311 1313 1314 1315 1317 1322 1324 1325 1326 1328 1330 1333 1334 1336 1337 1338 1340 1345 1347 1348 1349 1351 1353 1356 1357 1359 1360 1361 1363 1368 1370 1371 1372 1374 1375 1376 1379 1380 1382 1383 1384 1386 1391 1393 1394 1395 1397 1398 1399 1402 1403 1405 1406 1407 1409 1414 1416 1417 1418 1420 1421 1422 1426 1428 1429 1430 1432 1437 1439 1440 1441 1443 1444 1445 1449 1451 1452 1453 1455 1460 1462 1463 1464 1466 1467 1468 1472 1475 1476 1478 1483 1485 1486 1487 1489 1490 1491 1495 1498 1499 1500 46 1501 1506 1508 1509 1510 1512 1513 1514 1518 1521 1522 1523 1524 47 1529 1531 1532 1533 1535 1536 1537 1541 1544 1545 1546 1547 1550 1552 1554 1555 1556 1558 1559 1560 1564 1567 1568 1569 1570 1573 1574 1577 1578 1579 1581 1582 1583 1587 1590 1591 1592 1593 1596 1597 1599 1600 50 1601 1602 1604 1605 1606 1610 1613 1614 1615 1616 1619 1620 1622 1623 51 1627 1628 1629 1633 1636 1637 1638 1639 1642 1643 1645 1646 1650 1651 1652 1656 1659 1660 1661 1662 1665 1666 1668 1669 1673 1674 1675 53 1679 1682 1683 1684 1685 1688 1689 1691 1692 1696 1697 1698 54 1703 1704 1705 1706 1707 1708 1710 1711 1712 1713 1714 1715 1716 1717 1718 1719 1722 1723 1724 1725 1727 1728 1729 1730 1731 1733 1739 1740 1743 1747 56 1749 1754 1755 1757 1760 1761 1764 1768 57 1772 1773 1777 1778 1783 1786 1788 58 1793 1794 1796 1797 1799 1803 1806 1807 1811 1812 1813 1815 1817 1818 1820 1823 1825 1826 1827 1828 1829 60 1830 1834 1835 1836 1837 1840 1841 1842 1844 1845 61 1848 1855 1856 1857 1858 1861 1862 1864 62 1865 1867 1870 1876 1880 1881 1882 1883 1888 1890 1891 1892 1897 1899 1902 1904 1906 65 1910 1913 1914 1916 1918 1919 1922 66 1926 1927 1928 1929 1930 1932 1934 1935 1940 1943 1945 1947 1948 1950 1951 1953 1954 69 1956 1959 1960 1961 1962 1963 1965 1967 1968 1969 1971 1972 71 1974 1979 72 1983 1984 1985 1989 1991 1993 1999 2000 0
x 1051 1052 1053 1055 1057 1061 1064 1065 1067 1070 1071 1074 1076 1077 1079 1080 1081 1084 1085 1088 1089 1090 1092 1093 1094 1099 1101 1104 1105 1107 1108 1109 1112 1115 1117 1121 1122 1124 1125 1126 1128 1129 1130 1131 1132 1133 1137 1138 1144 1147 1148 1149 1152 1154 1155 1156 1157 1159 1160 1164 1167 1169 1170 1171 1172 1175 1178 1179 1180 1181 1182 1185 1187 1188 1190 1192 1194 1195 1198 1199 1200 34 1202 1203 1204 1207 1208 1209 1210 1211 1212 1213 1215 1218 1221 1222 1223 1225 1226 1227 1229 1230 1232 1234 1235 1238 1244 1245 1246 1248 1249 1250 1252 1258 1260 1261 1265 1267 1268 1269 1271 1272 1273 1274 1275 37 1276 1279 1281 1283 1285 1288 1289 1291 1292 1293 1295 1300 1302 1304 1306 1308 1311 1312 1314 1315 1316 1318 1323 1325 39 1327 1329 1331 1334 1335 1337 1338 1339 1341 1346 1348 1349 1350 1352 1354 1357 1358 1360 1361 1362 1364 1369 1371 1372 1373 1375 41 1377 1380 1381 1383 1384 1385 1387 1392 1394 1395 1396 1398 1399 1400 42 1403 1404 1406 1407 1408 1410 1415 1417 1418 1419 1421 1422 1423 1426 1427 1429 1430 1431 1433 1438 1440 1441 1442 1444 1445 1446 1450 1452 1453 1454 1456 1461 1463 1464 1465 1467 1468 1469 1473 1476 1477 1479 1484 1486 1487 1488 1490 1491 1492 1496 1499 1500 46 1502 1507 1509 1510 1511 1513 1514 1515 1519 1522 1523 1524 1525 1530 1532 1533 1534 1536 1537 1538 1542 1545 1546 1547 1548 1553 1555 1556 1557 1559 1560 1561 1565 1568 1569 1570 1571 1574 1575 1576 1578 1579 1580 1582 1583 1584 1588 1591 1592 1593 1594 1597 1598 1600 50 1601 1602 1603 1605 1606 1607 1611 1614 1615 1616 1617 1620 1621 1623 1624 1626 1628 1629 1630 1634 1637 1638 1639 1640 1643 1644 1646 1647 52 1651 1652 1653 1657 1660 1661 1662 1663 1666 1667 1669 1670 1674 1675 53 1676 1680 1683 1684 1685 1686 1689 1690 1692 1693 1697 1698 1699 54 1703 1704 1706 1707 1711 1714 1717 1719 1720 1721 1722 55 1726 1728 1729 1730 1733 1734 1735 1736 1741 1749 1750 1752 1753 1755 1757 1758 1759 1760 1761 1766 1767 1768 1769 57 1775 1777 1779 1782 1784 1786 1787 1789 1790 1792 1793 1794 1795 1796 1798 1799 1802 1804 1805 1806 1810 59 1811 1814 1815 1818 1819 1820 1821 1826 1827 1831 1832 1833 1837 1844 1845 1850 1854 1856 1857 1859 1865 1866 1867 1870 1871 1873 1874 1875 1876 1877 1878 1880 63 1882 1883 1888 1889 1891 64 1896 1900 1901 1902 1904 1905 1906 1907 1908 1909 1910 1911 1915 1917 1918 1920 1922 66 1925 1926 1929 1931 1932 1940 1945 68 1946 1947 1949 1950 1951 1953 1954 69 1957 1958 1959 1960 1961 1970 1971 1972 1973 1975 1976 1977 1978 72 1980 1981 1983 1984 1985 73 1986 1987 1988 74 1991 1992 75 1996 76 1998 1999 77 0
x 1052 1053 1056 1059 1061 1062 1070 1074 1076 1077 1080 1081 1083 1086 1091 1092 1093 1096 1098 1099 1101 1105 1107 1108 1110 1114 1119 1120 1124 1125 1127 1129 1132 1134 1137 1139 1140 1142 1143 1144 1145 1146 1147 1149 1151 1153 1154 1156 1158 1160 1162 1164 1165 1166 1167 1173 1174 1178 1180 1182 1183 1185 1189 1190 1192 1193 1194 1198 1199 1200 1202 1204 1208 1211 1213 1215 1218 1220 1223 1224 1226 1228 1229 1230 1231 1234 1235 1238 1240 1242 1243 1244 1245 1247 1249 1250 1257 1258 1259 1260 1261 1263 1264 1267 1269 1272 1273 1274 37 1276 1277 1280 1282 1284 1286 1289 1290 1292 1293 1294 1296 38 1303 1305 1307 1309 1312 1313 1315 1316 1317 1319 1324 1326 1328 1330 1332 1335 1336 1338 1339 1340 1342 1347 1349 1350 40 1351 1353 1355 1358 1359 1361 1362 1363 1365 1370 1372 1373 1374 1376 1378 1381 1382 1384 1385 1386 1388 1393 1395 1396 1397 1399 1400 1401 1404 1405 1407 1408 1409 1411 1416 1418 1419 1420 1422 1423 1424 43 1427 1428 1430 1431 1432 1434 1439 1441 1442 1443 1445 1446 1447 1451 1453 1454 1455 1457 1462 1464 1465 1466 1468 1469 1470 1474 45 1476 1477 1478 1480 1485 1487 1488 1489 1491 1492 1493 1497 1500 1501 1503 1508 1510 1511 1512 1514 1515 1516 1520 1523 1524 1525 47 1526 1531 1533 1534 1535 1537 1538 1539 1543 1546 1547 1548 1549 1554 1556 1557 1558 1560 1561 1562 1566 1569 1570 1571 1572 1575 49 1577 1579 1580 1581 1583 1584 1585 1589 1592 1593 1594 1595 1598 1599 1602 1603 1604 1606 1607 1608 1612 1615 1616 1617 1618 1621 1622 1624 1625 1626 1627 1629 1630 1631 1635 1638 1639 1640 1641 1644 1645 1647 1648 1652 1653 1654 1658 1661 1662 1663 1664 1667 1668 1670 1671 1675 1676 1677 1681 1684 1685 1686 1687 1690 1691 1693 1694 1698 1699 1700 1704 1705 1707 1708 1709 1710 1711 1712 1713 1714 1715 1720 1721 1723 1726 1727 1728 1729 1730 1732 1734 1737 1738 1739 1741 1742 1744 1745 1746 1747 1750 1751 1755 1756 1757 1759 1760 1761 1766 1767 1768 1769 1770 1773 1774 1776 1777 1781 1785 1786 1789 1790 1796 1798 1799 1800 1802 1803 1805 1807 1810 1811 1818 1820 1822 1824 1825 1826 1828 1829 1830 1831 1832 1842 1845 1847 1849 1850 1851 1852 1853 1857 1859 1861 1863 1865 1867 1868 1870 1871 1872 1875 1876 1877 63 1882 1884 1885 1888 1891 1892 1893 1895 64 1897 1898 1901 1903 1905 1908 1909 65 1912 1914 1915 1917 1918 1922 66 1927 1931 1932 1933 1934 67 1936 1937 1938 1939 1943 1944 68 1946 1947 1948 1952 1956 1957 1958 1960 1964 70 1966 1967 1970 1973 1974 1975 1977 1979 72 1981 1983 1985 73 1986 1987 1989 74 1991 1993 1994 75 1998 1999 77 2000 78 0
x 1053 1054 1056 1065 1066 1069 1070 1072 1073 1075 1076 1077 1078 1080 1082 1086 1089 1090 1092 1095 1096 1099 1101 1102 1104 1105 1106 1109 1110 1113 1114 1115 1117 1118 1119 1124 1126 1129 1130 1132 1133 1134 1137 1140 1142 1146 1147 1149 1150 1151 1153 1154 1155 1156 1157 1158 1162 1163 1169 1172 1173 1174 1177 1179 1180 1181 1182 1184 1185 1189 1192 1194 1195 1196 1197 1200 1203 1204 1205 1206 1207 1210 1212 1213 1215 1217 1219 1220 1223 1224 1225 1227 1228 1229 1232 1233 1234 1235 1236 1237 1238 1240 1243 1246 1247 1248 1250 1251 1252 1254 1255 1257 1259 1260 1263 1269 1270 1271 1273 1274 1275 37 1277 1278 1281 1283 1285 1287 1290 1291 1293 1294 1295 1297 1301 1304 1306 1308 1310 1313 1314 1316 1317 1318 1320 1325 1327 1329 1331 1333 1336 1337 1339 1340 1341 1343 1348 1350 40 1352 1354 1356 1359 1360 1362 1363 1364 1366 1371 1373 1374 1375 1377 1379 1382 1383 1385 1386 1387 1389 1394 1396 1397 1398 1400 1402 1405 1406 1408 1409 1410 1412 1417 1419 1420 1421 1423 1424 1425 43 1428 1429 1431 1432 1433 1435 1440 1442 1443 1444 1446 1447 1448 1451 1452 1454 1455 1456 1458 1463 1465 1466 1467 1469 1470 1471 1475 45 1477 1478 1479 1481 1486 1488 1489 1490 1492 1493 1494 1498 46 1501 1502 1504 1509 1511 1512 1513 1515 1516 1517 1521 1524 1525 1527 1532 1534 1535 1536 1538 1539 1540 1544 1547 1548 1549 1550 48 1555 1557 1558 1559 1561 1562 1563 1567 1570 1571 1572 1573 1578 1580 1581 1582 1584 1585 1586 1590 1593 1594 1595 1596 1599 1600 50 1601 1603 1604 1605 1607 1608 1609 1613 1616 1617 1618 1619 1622 1623 1625 51 1626 1627 1628 1630 1631 1632 1636 1639 1640 1641 1642 1645 1646 1648 1649 1651 1653 1654 1655 1659 1662 1663 1664 1665 1668 1669 1671 1672 53 1676 1677 1678 1682 1685 1686 1687 1688 1691 1692 1694 1695 1699 1700 54 1701 1704 1705 1708 1711 1712 1715 1717 1719 1721 1723 55 1727 1728 1729 1730 1731 1732 1734 1735 1736 1737 1738 1739 1740 1741 1742 1743 1746 1747 1748 1750 1751 1752 1753 1754 1756 1762 1763 1766 1771 1776 1777 1779 1782 1783 1786 1790 58 1793 1794 1798 1799 1804 1807 1809 59 1813 1814 1816 1817 1819 1823 1826 1827 60 1830 1831 1832 1834 1836 1837 1839 1842 1844 1845 1846 1847 61 1848 1852 1853 1854 1855 1858 1859 1860 1862 1863 62 1865 1872 1873 1874 1875 1878 1879 1881 1883 1886 1892 1896 1897 1898 1903 1905 1906 1907 1911 1913 1916 1918 1920 1923 1926 1927 1929 1931 1932 1938 1939 1940 1941 1942 1944 1946 1951 1954 69 1957 1958 1960 1961 1963 1964 70 1965 1968 1969 1970 1971 1972 1973 1975 1976 1977 1979 72 1981 1989 1990 1994 75 1995 1997 76 0
x 1054 1057 1059 1060 1062 1069 1070 1072 1074 1075 1077 1078 1081 1084 1086 1087 1095 1099 1101 1102 1105 1106 1108 1111 1116 1117 1118 1121 1123 1124 1126 1130 1132 1133 1135 1139 1144 1145 1149 1150 1152 1154 1157 1159 1162 1164 1165 1167 1168 1169 1170 1171 1172 1174 1176 1178 1179 1181 1183 1185 1187 1189 1190 1191 1192 1198 1199 1203 1205 1207 1208 1210 1214 1215 1217 1218 1219 1223 1224 1225 1227 1229 1233 1236 1238 1240 1243 1245 1248 1249 1251 1253 1254 1255 1256 1259 1260 1263 1265 1267 1268 1269 1270 1272 1274 1275 1276 1278 1279 1282 1284 1286 1288 1291 1292 1294 1295 1296 1298 1301 1302 1305 1307 1309 1311 1314 1315 1317 1318 1319 1321 1328 1330 1332 1334 1337 1338 1340 1341 1342 1344 1349 40 1351 1353 1355 1357 1360 1361 1363 1364 1365 1367 1372 1374 1375 1376 1378 1380 1383 1384 1386 1387 1388 1390 1395 1397 1398 1399 42 1401 1403 1406 1407 1409 1410 1411 1413 1418 1420 1421 1422 1424 1425 43 1426 1429 1430 1432 1433 1434 1436 1441 1443 1444 1445 1447 1448 1449 44 1452 1453 1455 1456 1457 1459 1464 1466 1467 1468 1470 1471 1472 45 1476 1478 1479 1480 1482 1487 1489 1490 1491 1493 1494 1495 1499 46 1501 1502 1503 1505 1510 1512 1513 1514 1516 1517 1518 1522 1525 1526 1528 1533 1535 1536 1537 1539 1540 1541 1545 1548 1549 1550 1551 1556 1558 1559 1560 1562 1563 1564 1568 1571 1572 1573 1574 49 1579 1581 1582 1583 1585 1586 1587 1591 1594 1595 1596 1597 1600 1602 1604 1605 1606 1608 1609 1610 1614 1617 1618 1619 1620 1623 1624 51 1627 1628 1629 1631 1632 1633 1637 1640 1641 1642 1643 1646 1647 1649 1650 52 1651 1652 1654 1655 1656 1660 1663 1664 1665 1666 1669 1670 1672 1673 1677 1678 1679 1683 1686 1687 1688 1689 1692 1693 1695 1696 1700 54 1702 1705 1706 1709 1710 1711 1713 1714 1715 1716 1718 1719 1720 1722 1723 1724 1727 1728 1730 1731 1735 1738 1741 1743 1744 1745 1746 1749 1751 1752 1753 1756 1757 1758 1759 1764 1771 1772 1774 1775 1777 1779 1780 1781 1782 1783 1788 1789 1790 1796 1798 1800 1803 1805 1807 1808 1810 59 1812 1813 1814 1815 1816 1818 1819 1822 1824 1825 1826 60 1830 1833 1834 1837 1838 1839 1840 1845 1846 1849 1850 1851 1855 1862 1863 1867 1871 1873 1874 1876 1881 1882 1883 1886 1887 1889 1890 1891 1892 1893 1894 64 1897 1898 1903 1904 1906 65 1910 1914 1915 1916 1918 1919 1920 1921 1922 1923 1924 1928 1930 1931 1933 1937 1938 1941 1943 1944 1951 1956 1957 1959 1960 1961 1963 1964 70 1966 1967 1968 1969 1970 71 1978 1979 72 1980 1982 1983 1984 1985 73 1986 1987 1989 1990 1991 1992 1993 1995 1996 1999 2000 78 0
x -1051 1052 1055 1057 1060 1064 1066 1067 1072 1074 1075 1078 1079 1081 1090 1091 1094 1095 1097 1098 1100 1101 1102 1103 1105 1107 1111 1114 1115 1117 1120 1121 1124 1126 1127 1129 1130 1131 1134 1135 1138 1139 1140 1142 1143 1144 1149 1151 1154 1155 1157 1158 1159 1162 1165 1167 1171 1172 1174 1175 1176 1178 1179 1180 1181 1182 1183 1187 1188 1194 1197 1198 1199 1202 1204 1205 1206 1207 1209 1210 1214 1217 1219 1220 1221 1222 1225 35 1228 1229 1230 1231 1232 1235 1237 1238 1240 1242 1244 1245 1248 1249 1250 1252 1253 1254 1257 1258 1259 1260 1261 1262 1263 1265 1268 1271 1272 1273 1275 37 1276 1277 1279 1280 1283 1285 1287 1289 1292 1293 1295 1296 1297 1299 38 1302 1303 1306 1308 1310 1312 1315 1316 1318 1319 1320 1322 1326 1329 1331 1333 1335 1338 1339 1341 1342 1343 1345 1350 40 1352 1354 1356 1358 1361 1362 1364 1365 1366 1368 1373 1375 41 1377 1379 1381 1384 1385 1387 1388 1389 1391 1396 1398 1399 1400 1402 1404 1407 1408 1410 1411 1412 1414 1419 1421 1422 1423 1425 1427 1430 1431 1433 1434 1435 1437 1442 1444 1445 1446 1448 1449 1450 1453 1454 1456 1457 1458 1460 1465 1467 1468 1469 1471 1472 1473 45 1476 1477 1479 1480 1481 1483 1488 1490 1491 1492 1494 1495 1496 1500 1502 1503 1504 1506 1511 1513 1514 1515 1517 1518 1519 1523 47 1526 1527 1529 1534 1536 1537 1538 1540 1541 1542 1546 1549 1550 1552 1557 1559 1560 1561 1563 1564 1565 1569 1572 1573 1574 1575 49 1580 1582 1583 1584 1586 1587 1588 1592 1595 1596 1597 1598 1603 1605 1606 1607 1609 1610 1611 1615 1618 1619 1620 1621 1624 1625 1626 1628 1629 1630 1632 1633 1634 1638 1641 1642 1643 1644 1647 1648 1650 1651 1652 1653 1655 1656 1657 1661 1664 1665 1666 1667 1670 1671 1673 1674 1676 1678 1679 1680 1684 1687 1688 1689 1690 1693 1694 1696 1697 54 1701 1702 1703 1705 1706 1712 1716 1718 1719 1721 1728 1729 1731 1732 1733 1734 1735 1736 1737 1738 1739 1744 1745 1747 1749 1750 1751 1752 1753 1755 1757 1760 1761 1762 1764 1765 1767 1768 1769 1772 1773 1777 1778 1779 1781 1782 1783 1788 1789 1790 58 1791 1794 1795 1797 1798 1802 1806 1807 1810 59 1816 1818 1819 1820 1822 1823 1825 1827 1830 1837 1839 1841 1843 1844 1845 1847 1848 1849 1850 1860 1863 1866 1867 1868 1869 1870 1874 1876 1878 1880 1881 1883 1884 1886 1887 1888 1891 1892 1893 1897 1899 1900 1903 1906 1907 1908 65 1911 1912 1915 1917 1919 1922 1925 1927 1928 1930 1931 1939 1943 1944 1945 1947 1948 1949 1950 1954 1955 69 1956 1957 1958 1962 1965 1966 1967 1969 1974 1975 1978 72 1980 1981 1982 1984 1987 1989 1991 1992 1994 1995 1997 76 2000 78 0
x 1052 1053 1058 1060 1063 1065 1070 1072 1074 1075 1079 1082 1084 1085 1087 1094 1095 1097 1099 1100 1102 1103 1106 1109 1111 1112 1120 1124 1126 1127 1130 1131 1133 1136 1141 1142 1143 1146 1148 1149 1151 1155 1157 1158 1160 1164 1169 1170 1174 1175 1177 1179 1182 1184 1187 1189 1190 1192 1193 1194 1195 1196 1197 1199 1201 1203 1204 1206 1208 1210 1212 1214 1215 1216 1217 1223 1224 1228 1230 1232 1233 1235 1239 1240 1242 1243 1244 1248 1249 1250 1252 1254 1258 1261 1263 1265 1268 1270 1273 1274 37 1276 1277 1278 1280 1281 1284 1286 1288 1290 1293 1294 1296 1297 1298 1300 1301 1303 1304 1307 1309 1311 1313 1316 1317 1319 1320 1321 1323 39 1326 1327 1330 1332 1334 1336 1339 1340 1342 1343 1344 1346 1353 1355 1357 1359 1362 1363 1365 1366 1367 1369 1374 1376 1378 1380 1382 1385 1386 1388 1389 1390 1392 1397 1399 1400 1401 1403 1405 1408 1409 1411 1412 1413 1415 1420 1422 1423 1424 43 1426 1428 1431 1432 1434 1435 1436 1438 1443 1445 1446 1447 1449 1450 1451 1454 1455 1457 1458 1459 1461 1466 1468 1469 1470 1472 1473 1474 45 1477 1478 1480 1481 1482 1484 1489 1491 1492 1493 1495 1496 1497 1501 1503 1504 1505 1507 1512 1514 1515 1516 1518 1519 1520 1524 47 1526 1527 1528 1530 1535 1537 1538 1539 1541 1542 1543 1547 1550 1551 1553 1558 1560 1561 1562 1564 1565 1566 1570 1573 1574 1575 49 1576 1581 1583 1584 1585 1587 1588 1589 1593 1596 1597 1598 1599 1604 1606 1607 1608 1610 1611 1612 1616 1619 1620 1621 1622 1625 1627 1629 1630 1631 1633 1634 1635 1639 1642 1643 1644 1645 1648 1649 1652 1653 1654 1656 1657 1658 1662 1665 1666 1667 1668 1671 1672 1674 1675 1676 1677 1679 1680 1681 1685 1688 1689 1690 1691 1694 1695 1697 1698 1701 1702 1703 1704 1706 1707 1711 1712 1715 1716 1717 1719 1722 1724 1725 1728 1729 1732 1735 1736 1739 1741 1743 1745 1747 56 1750 1751 1752 1753 1754 1755 1757 1758 1759 1760 1761 1762 1763 1764 1765 1766 1769 57 1770 1772 1773 1774 1775 1776 1778 1784 1785 1788 1792 1797 1798 1800 1803 1804 1807 1813 1814 1818 1819 1824 1827 1829 60 1832 1833 1835 1836 1838 1842 1845 1846 61 1848 1849 1850 1852 1854 1855 1857 1860 1862 1863 1864 1865 1869 1870 1871 1872 1875 1876 1877 1879 1880 63 1881 1888 1889 1890 1891 1894 1895 1896 1898 1901 1907 1910 1911 1912 1917 1919 1920 1921 1924 1926 1929 1931 1933 67 1935 1938 1939 1941 1943 1944 68 1949 1950 1951 1952 1953 1955 1956 1961 1964 1966 1967 1969 1970 1972 1973 1976 1977 1978 1979 1980 1982 1983 1984 73 1987 74 1994 1998 77 0
x 1052 1054 1058 1061 1062 1065 1066 1067 1068 1072 1074 1076 1077 1080 1082 1085 1089 1091 1092 1097 1099 1100 1103 1104 1106 1115 1116 1119 1120 1122 1123 1125 1126 1127 1128 1130 1132 1136 1139 1140 1142 1145 1146 1149 1151 1152 1154 1155 1156 1159 1160 1163 1164 1165 1167 1168 1169 1174 1176 1179 1180 1182 1183 1184 1187 1190 1192 1196 1197 1199 1200 1201 1203 1204 1205 1206 1207 1208 1212 1213 1219 1222 1223 1224 1227 1229 1230 1231 1232 1234 1235 1239 1242 1244 1245 1246 1247 1250 1253 1254 1255 1256 1257 1260 1262 1263 1265 1267 1269 1270 1273 1274 1275 1277 1278 1279 1281 1282 1285 1287 1289 1291 1294 1295 1297 1298 1299 1301 1302 1304 1305 1308 1310 1312 1314 1317 1318 1320 1321 1322 1324 1327 1328 1331 1333 1335 1337 1340 1341 1343 1344 1345 1347 1351 1354 1356 1358 1360 1363 1364 1366 1367 1368 1370 1375 41 1377 1379 1381 1383 1386 1387 1389 1390 1391 1393 1398 1400 42 1402 1404 1406 1409 1410 1412 1413 1414 1416 1421 1423 1424 1425 43 1427 1429 1432 1433 1435 1436 1437 1439 1444 1446 1447 1448 1450 1452 1455 1456 1458 1459 1460 1462 1467 1469 1470 1471 1473 1474 1475 1478 1479 1481 1482 1483 1485 1490 1492 1493 1494 1496 1497 1498 1501 1502 1504 1505 1506 1508 1513 1515 1516 1517 1519 1520 1521 1525 47 1527 1528 1529 1531 1536 1538 1539 1540 1542 1543 1544 1548 1551 1552 1554 1559 1561 1562 1563 1565 1566 1567 1571 1574 1575 49 1577 1582 1584 1585 1586 1588 1589 1590 1594 1597 1598 1599 1600 50 1605 1607 1608 1609 1611 1612 1613 1617 1620 1621 1622 1623 51 1628 1630 1631 1632 1634 1635 1636 1640 1643 1644 1645 1646 1649 1650 1651 1653 1654 1655 1657 1658 1659 1663 1666 1667 1668 1669 1672 1673 1675 1676 1677 1678 1680 1681 1682 1686 1689 1690 1691 1692 1695 1696 1698 1699 1704 1705 1706 1707 1711 1713 1715 1717 1719 1720 1721 1723 1724 1726 1729 1730 1733 1734 1735 1737 1738 1739 1740 1742 1743 1744 1746 1747 56 1750 1751 1753 1754 1758 1761 1764 1766 1767 1768 1769 57 1771 1773 1774 1775 1778 1779 1780 1781 1786 1792 1793 1795 1796 1798 1800 1801 1802 1803 1804 1809 1810 59 1816 1818 1820 1823 1825 1827 1828 1831 1832 1833 1834 1835 1837 1838 1841 1843 1844 1845 1848 1851 1852 1855 1856 1857 1858 1863 1864 62 1866 1867 1868 1872 1879 1880 1883 1887 1889 1890 1892 1896 1897 1898 1901 1902 1904 1905 1906 1907 1908 1909 1911 1912 1917 1918 1920 66 1923 1927 1928 1929 1931 1932 1933 1934 67 1935 1936 1940 1942 1943 1945 1948 1949 1952 1954 1955 69 1961 1965 1966 1968 1969 1970 1972 71 1974 1975 1976 1977 1978 72 1985 73 1986 1988 1989 1990 74 1991 1992 1994 75 1995 1996 1997 1998 1999 77 78 0
x -1051 1052 1053 1055 1057 1059 1061 1063 1064 1066 1067 1071 1074 1077 1078 1083 1085 1088 1090 1095 1097 1099 1100 1104 1107 1109 1110 1112 1119 1120 1122 1124 1125 1127 1128 1131 1134 1136 1137 1145 1149 1151 1152 1155 1156 1158 1161 1166 1167 1168 1171 1173 1174 1176 1180 1182 1183 1185 1189 1194 1195 1199 1200 1202 1204 1207 1209 1212 1214 1215 1217 1218 1219 1220 1221 1222 1224 1226 1228 1229 1231 1233 1235 1237 1239 1240 1241 1242 1248 1249 1253 1255 1257 1258 1260 1264 1265 1267 1268 1269 1273 1274 1275 1276 1278 1279 1280 1282 1283 1286 1288 1290 1292 1295 1296 1298 1299 1300 38 1301 1302 1303 1305 1306 1309 1311 1313 1315 1318 1319 1321 1322 1323 1325 39 1326 1328 1329 1332 1334 1336 1338 1341 1342 1344 1345 1346 1348 1351 1352 1355 1357 1359 1361 1364 1365 1367 1368 1369 1371 41 1378 1380 1382 1384 1387 1388 1390 1391 1392 1394 1399 42 1401 1403 1405 1407 1410 1411 1413 1414 1415 1417 1422 1424 1425 43 1426 1428 1430 1433 1434 1436 1437 1438 1440 1445 1447 1448 1449 1451 1453 1456 1457 1459 1460 1461 1463 1468 1470 1471 1472 1474 1475 1476 1479 1480 1482 1483 1484 1486 1491 1493 1494 1495 1497 1498 1499 1502 1503 1505 1506 1507 1509 1514 1516 1517 1518 1520 1521 1522 1526 1528 1529 1530 1532 1537 1539 1540 1541 1543 1544 1545 1549 48 1551 1552 1553 1555 1560 1562 1563 1564 1566 1567 1568 1572 1575 49 1576 1578 1583 1585 1586 1587 1589 1590 1591 1595 1598 1599 1600 1601 1606 1608 1609 1610 1612 1613 1614 1618 1621 1622 1623 1624 51 1629 1631 1632 1633 1635 1636 1637 1641 1644 1645 1646 1647 1650 52 1652 1654 1655 1656 1658 1659 1660 1664 1667 1668 1669 1670 1673 1674 53 1677 1678 1679 1681 1682 1683 1687 1690 1691 1692 1693 1696 1697 1699 1700 1701 1702 1705 1706 1707 1708 1713 1717 1718 1720 1722 1724 55 1725 1726 1727 1729 1730 1736 1740 1742 1743 1745 1751 1752 1754 1755 1756 1757 1758 1759 1760 1761 1762 1767 1768 57 1771 1772 1773 1774 1775 1777 1779 1782 1783 1784 1786 1787 1789 1790 1793 1794 1798 1799 1800 1802 1803 1804 1809 1810 59 1811 1814 1815 1817 1818 1822 1826 1827 1835 1837 1838 1839 1841 1842 1844 1846 1848 1855 1857 1859 1861 1862 1863 1865 1866 1867 1877 1880 63 1882 1883 1884 1885 1886 1890 1892 1894 1896 1898 1899 1901 1902 1903 1906 1907 1908 1911 1913 1914 1917 1920 1921 1922 66 1924 1925 1928 1930 1932 1937 1939 1940 1942 1943 68 1950 1954 1955 1957 1958 1959 1960 1964 70 1965 1966 1967 1971 71 1973 1974 1975 1977 72 1981 1982 1985 1986 1987 1988 1990 74 1992 1994 75 1995 1996 76 1998 0
x 1056 1058 1059 1062 1063 1064 1066 1067 1069 1073 1074 1077 1079 1083 1086 1087 1090 1091 1092 1093 1097 1099 1101 1102 1105 1107 1110 1114 1116 1117 1122 1124 1125 1128 1129 1131 1140 1141 1144 1145 1147 1148 1150 1151 1152 1153 1155 1157 1161 1164 1165 1167 1170 1171 1174 1176 1177 1179 1180 1181 1184 1185 1188 1189 1190 1192 1193 1194 1199 1201 1204 1205 1207 1208 1209 1212 1215 1217 1221 1222 1224 1225 1226 1228 1229 1230 1231 1232 1233 1237 1238 1244 1247 1248 1249 36 1252 1254 1255 1256 1257 1259 1260 1264 1267 1269 1270 1271 1272 1275 1277 1279 1280 1281 1283 1284 1287 1289 1291 1293 1296 1297 1299 1300 38 1302 1303 1304 1306 1307 1310 1312 1314 1316 1319 1320 1322 1323 1324 1326 1327 1329 1330 1333 1335 1337 1339 1342 1343 1345 1346 1347 1349 1352 1353 1356 1358 1360 1362 1365 1366 1368 1369 1370 1372 41 1376 1379 1381 1383 1385 1388 1389 1391 1392 1393 1395 1400 42 1402 1404 1406 1408 1411 1412 1414 1415 1416 1418 1423 1425 43 1427 1429 1431 1434 1435 1437 1438 1439 1441 1446 1448 1449 1450 44 1452 1454 1457 1458 1460 1461 1462 1464 1469 1471 1472 1473 1475 45 1477 1480 1481 1483 1484 1485 1487 1492 1494 1495 1496 1498 1499 1500 46 1503 1504 1506 1507 1508 1510 1515 1517 1518 1519 1521 1522 1523 47 1526 1527 1529 1530 1531 1533 1538 1540 1541 1542 1544 1545 1546 1550 48 1552 1553 1554 1556 1561 1563 1564 1565 1567 1568 1569 1573 1576 1577 1579 1584 1586 1587 1588 1590 1591 1592 1596 1599 1600 50 1602 1607 1609 1610 1611 1613 1614 1615 1619 1622 1623 1624 1625 51 1630 1632 1633 1634 1636 1637 1638 1642 1645 1646 1647 1648 1653 1655 1656 1657 1659 1660 1661 1665 1668 1669 1670 1671 1674 1675 53 1676 1678 1679 1680 1682 1683 1684 1688 1691 1692 1693 1694 1697 1698 1700 1702 1704 1706 1708 1712 1713 1714 1716 1717 1718 1720 1721 1722 1723 1725 1726 1727 1728 1730 1731 1735 1736 1739 1740 1741 1743 1746 1748 1751 1752 1755 1758 1759 1762 1764 1766 1768 57 1772 1773 1774 1775 1776 1777 1779 1780 1781 1782 1783 1784 1785 1786 1787 1788 58 1791 1793 1794 1795 1796 1797 1799 1805 1806 1809 59 1812 1817 1818 1820 1823 1824 1827 60 1832 1833 1837 1838 1843 1846 1850 1851 1853 1854 1856 1860 1863 1864 62 1865 1866 1867 1869 1871 1872 1874 1877 1879 1880 1881 1885 1886 1887 1888 1891 1892 1893 1895 64 1896 1903 1904 1905 1906 1909 1910 1912 1915 1921 66 1923 1924 1925 1930 1932 1933 1934 1936 1938 1941 1943 1945 1946 1949 1950 1952 1954 1955 69 1959 1960 1961 1962 1963 1965 1970 1974 1975 1977 1978 1980 1983 1984 1985 1986 1988 1989 1990 1992 75 76 77 2000 78 0
x -1051 1052 1053 1057 1058 1059 1060 1062 1064 1067 1068 1069 1072 1076 1077 1078 1080 1082 1084 1086 1088 1089 1091 1092 1096 1099 1102 1103 1108 1110 1113 1115 1120 1122 1124 1125 1129 1132 1134 1135 1137 1144 1145 1147 1149 1150 1152 1153 1156 1159 1161 1162 1170 1174 1176 1177 1180 1181 1183 1186 1191 1192 1193 1196 1198 1199 1201 1205 1207 1208 1210 1214 1219 1220 1224 1225 1227 1229 1232 1234 1237 1239 1240 1242 1243 1244 1245 1246 1247 1249 1251 1253 1254 1256 1258 1260 1262 1264 1265 1266 1267 1273 1274 37 1278 1280 1281 1282 1284 1285 1288 1290 1292 1294 1297 1298 1300 38 1301 1303 1304 1305 1307 1308 1311 1313 1315 1317 1320 1321 1323 1324 1325 39 1326 1327 1328 1330 1331 1334 1336 1338 1340 1343 1344 1346 1347 1348 1350 1351 1353 1354 1357 1359 1361 1363 1366 1367 1369 1370 1371 1373 1376 1377 1380 1382 1384 1386 1389 1390 1392 1393 1394 1396 1403 1405 1407 1409 1412 1413 1415 1416 1417 1419 1424 43 1426 1428 1430 1432 1435 1436 1438 1439 1440 1442 1447 1449 1450 44 1451 1453 1455 1458 1459 1461 1462 1463 1465 1470 1472 1473 1474 45 1476 1478 1481 1482 1484 1485 1486 1488 1493 1495 1496 1497 1499 1500 1501 1504 1505 1507 1508 1509 1511 1516 1518 1519 1520 1522 1523 1524 47 1527 1528 1530 1531 1532 1534 1539 1541 1542 1543 1545 1546 1547 1551 1553 1554 1555 1557 1562 1564 1565 1566 1568 1569 1570 1574 49 1576 1577 1578 1580 1585 1587 1588 1589 1591 1592 1593 1597 1600 1601 1603 1608 1610 1611 1612 1614 1615 1616 1620 1623 1624 1625 51 1626 1631 1633 1634 1635 1637 1638 1639 1643 1646 1647 1648 1649 52 1654 1656 1657 1658 1660 1661 1662 1666 1669 1670 1671 1672 1675 1677 1679 1680 1681 1683 1684 1685 1689 1692 1693 1694 1695 1698 1699 1702 1705 1707 1709 1719 1721 1723 1724 55 1728 1729 1730 1731 1735 1737 1739 1741 1743 1744 1745 1747 56 1749 1752 1753 1756 1757 1758 1760 1761 1762 1763 1765 1766 1767 1769 1772 1773 1775 1776 1780 1783 1786 1788 1789 1790 58 1792 1794 1795 1796 1799 1800 1801 1802 1807 59 1812 1813 1815 1816 1818 1820 1821 1822 1823 1824 1829 1835 1837 1839 1842 1844 1846 1847 61 1849 1850 1851 1852 1853 1855 1856 1859 1861 1862 1863 1865 1868 1869 1872 1873 1874 1875 1880 1882 1883 1884 1888 1895 1898 1902 1904 1905 1907 1910 1911 1912 1915 1916 1918 1919 1920 1921 1922 1924 1925 1930 1931 1933 67 1935 1939 1940 1941 1943 1944 1945 68 1946 1947 1951 1953 1954 69 1958 1959 1962 1964 70 1970 71 1973 1974 1976 1977 1978 1981 1982 1983 1984 1985 1991 1993 1994 75 1995 1996 76 1998 1999 2000 78 0
x -1051 1052 1055 1058 1059 1063 1064 1065 1066 1067 1068 1074 1075 1081 1083 1084 1087 1088 1089 1091 1092 1094 1098 1099 1102 1104 1108 1111 1112 1115 1116 1117 1118 1122 1124 1126 1127 1130 1132 1135 1139 1141 1142 1147 1149 1150 1153 1154 1156 1165 1166 1169 1170 1172 1173 1175 1176 1177 1178 1180 1182 1186 1189 1190 1192 1195 1196 1199 1201 1202 1204 1205 1206 1209 1210 1213 1214 1215 1217 1218 1219 1224 1226 1229 1230 1232 1233 1234 1237 1240 1242 1246 1247 1249 1250 1251 1253 1254 1255 1256 1257 1258 1262 1263 1269 1272 1273 1274 37 1279 1281 1282 1283 1285 1286 1289 1291 1293 1295 1298 1299 1302 1304 1305 1306 1308 1309 1312 1314 1316 1318 1321 1322 1324 1325 1327 1328 1329 1331 1332 1335 1337 1339 1341 1344 1345 1347 1348 1349 40 1351 1352 1354 1355 1358 1360 1362 1364 1367 1368 1370 1371 1372 1374 1377 1378 1381 1383 1385 1387 1390 1391 1393 1394 1395 1397 42 1401 1404 1406 1408 1410 1413 1414 1416 1417 1418 1420 1425 43 1427 1429 1431 1433 1436 1437 1439 1440 1441 1443 1448 1450 1452 1454 1456 1459 1460 1462 1463 1464 1466 1471 1473 1474 1475 45 1477 1479 1482 1483 1485 1486 1487 1489 1494 1496 1497 1498 1500 46 1502 1505 1506 1508 1509 1510 1512 1517 1519 1520 1521 1523 1524 1525 1528 1529 1531 1532 1533 1535 1540 1542 1543 1544 1546 1547 1548 1551 1552 1554 1555 1556 1558 1563 1565 1566 1567 1569 1570 1571 1575 1577 1578 1579 1581 1586 1588 1589 1590 1592 1593 1594 1598 50 1601 1602 1604 1609 1611 1612 1613 1615 1616 1617 1621 1624 1625 51 1627 1632 1634 1635 1636 1638 1639 1640 1644 1647 1648 1649 1650 1655 1657 1658 1659 1661 1662 1663 1667 1670 1671 1672 1673 1678 1680 1681 1682 1684 1685 1686 1690 1693 1694 1695 1696 1699 1700 1701 1703 1704 1705 1706 1713 1714 1717 1718 1721 1722 1723 1724 1725 1726 1729 1730 1731 1732 1737 1741 1742 1744 1746 56 1748 1749 1750 1752 1753 1759 1763 1765 1766 1768 57 1773 1774 1776 1777 1778 1779 1780 1781 1782 1783 1784 1789 1790 1792 1793 1794 1795 1796 1798 1800 1803 1804 1805 1807 1808 1810 59 1813 1814 1818 1819 1820 1822 1823 1824 1829 60 1830 1833 1834 1836 1837 1841 1845 1846 1853 1855 1856 1857 1859 1860 1862 1864 62 1865 1872 1874 1876 1878 1879 1880 63 1881 1882 1883 1893 64 1897 1898 1899 1900 1901 1905 1907 1909 65 1910 1912 1913 1915 1916 1917 1920 1921 1922 1924 1926 1927 1930 1933 1934 1936 1937 1940 1942 1944 1948 1950 1951 1953 1954 1960 1964 1966 1967 1968 1969 71 1973 1974 1975 1979 1980 1981 1982 1984 73 1987 1988 1991 1992 1993 1996 76 1998 1999 77 2000 78 0
x 1051 1052 1054 1056 1060 1063 1065 1067 1068 1069 1070 1071 1073 1076 1077 1078 1082 1083 1084 1085 1087 1089 1092 1093 1094 1097 1101 1102 1103 1105 1107 1109 1111 1113 1114 1116 1117 1121 1124 1127 1128 1133 1135 1138 1140 1145 1147 1149 1150 1154 1157 1159 1160 1162 1169 1170 1172 1174 1175 1177 1178 1181 1184 1186 1187 1195 1199 1201 1202 1205 1206 1208 1211 1216 1217 1218 1221 1223 1224 1226 1230 1232 1233 1235 1239 1244 1245 1249 1250 1252 1254 1257 1259 1262 1264 1265 1267 1268 1269 1270 1271 1272 1274 1276 1280 1282 1283 1284 1286 1287 1290 1292 1294 1296 1299 1300 38 1303 1305 1306 1307 1309 1310 1313 1315 1317 1319 1322 1323 1325 39 1326 1328 1329 1330 1332 1333 1336 1338 1340 1342 1345 1346 1348 1349 1350 1351 1352 1353 1355 1356 1359 1361 1363 1365 1368 1369 1371 1372 1373 1375 41 1376 1378 1379 1382 1384 1386 1388 1391 1392 1394 1395 1396 1398 42 1401 1402 1405 1407 1409 1411 1414 1415 1417 1418 1419 1421 43 1428 1430 1432 1434 1437 1438 1440 1441 1442 1444 1449 1451 1453 1455 1457 1460 1461 1463 1464 1465 1467 1472 1474 1475 1476 1478 1480 1483 1484 1486 1487 1488 1490 1495 1497 1498 1499 46 1501 1503 1506 1507 1509 1510 1511 1513 1518 1520 1521 1522 1524 1525 47 1526 1529 1530 1532 1533 1534 1536 1541 1543 1544 1545 1547 1548 1549 48 1552 1553 1555 1556 1557 1559 1564 1566 1567 1568 1570 1571 1572 1576 1578 1579 1580 1582 1587 1589 1590 1591 1593 1594 1595 1599 1601 1602 1603 1605 1610 1612 1613 1614 1616 1617 1618 1622 1625 51 1626 1628 1633 1635 1636 1637 1639 1640 1641 1645 1648 1649 1650 1651 1656 1658 1659 1660 1662 1663 1664 1668 1671 1672 1673 1674 1679 1681 1682 1683 1685 1686 1687 1691 1694 1695 1696 1697 1700 1702 1703 1705 1706 1707 1716 1722 1724 55 1726 1728 1730 1732 1736 1737 1738 1740 1741 1742 1744 1745 1746 1747 1748 1749 1750 1751 1753 1754 1758 1759 1762 1763 1764 1766 1769 57 1770 1773 1774 1777 1780 1781 1784 1786 1788 1790 58 1793 1794 1795 1796 1797 1798 1800 1801 1802 1803 1804 1805 1806 1807 1808 1809 1811 1813 1814 1815 1816 1817 1819 1825 1826 1829 60 1831 1836 1837 1839 1842 1843 1846 61 1850 1851 1855 1856 1861 1864 1867 1868 1870 1871 1873 1877 1880 1881 1882 1883 1885 1887 1888 1890 1893 1895 64 1896 1900 1901 1902 1903 1906 1907 1908 65 1910 1917 1918 1919 1920 66 1923 1925 1928 1934 67 1935 1936 1937 1942 1944 1945 1947 1949 1952 1954 1956 1959 1960 1962 1964 1968 1969 1970 1971 1972 1973 1978 72 1981 1982 1984 1985 1986 1989 1990 74 1991 1993 1994 75 1996 78 0
x -1051 1052 1053 1054 1056 1057 1062 1064 1065 1066 1067 1069 1072 1075 1076 1077 1080 1083 1084 1088 1089 1090 1091 1092 1093 1099 1100 1106 1108 1109 1112 1113 1114 1116 1117 1119 1123 1124 1127 1129 1133 1136 1137 1140 1141 1142 1143 1147 1149 1151 1152 1155 1157 1160 1164 1166 1167 1172 1174 1175 1178 1179 1181 1190 1191 1194 1195 1197 1198 1200 1201 1202 1203 1205 1207 1211 1214 1215 1217 1220 1221 1224 1226 1227 1229 1230 1231 1234 1235 1238 1239 1240 1242 1243 1244 1249 1251 1254 1255 1257 1258 1259 1262 1265 1267 1271 1272 1274 1275 1276 1277 1281 1283 1284 1285 1287 1288 1291 1293 1295 1297 1300 1304 1306 1307 1308 1310 1311 1314 1316 1318 1320 1323 1324 39 1327 1329 1330 1331 1333 1334 1337 1339 1341 1343 1346 1347 1349 1350 1352 1353 1354 1356 1357 1360 1362 1364 1366 1369 1370 1372 1373 1374 41 1376 1377 1379 1380 1383 1385 1387 1389 1392 1393 1395 1396 1397 1399 42 1402 1403 1406 1408 1410 1412 1415 1416 1418 1419 1420 1422 43 1426 1429 1431 1433 1435 1438 1439 1441 1442 1443 1445 1450 44 1452 1454 1456 1458 1461 1462 1464 1465 1466 1468 1473 1475 1477 1479 1481 1484 1485 1487 1488 1489 1491 1496 1498 1499 1500 1502 1504 1507 1508 1510 1511 1512 1514 1519 1521 1522 1523 1525 1527 1530 1531 1533 1534 1535 1537 1542 1544 1545 1546 1548 1549 1550 48 1553 1554 1556 1557 1558 1560 1565 1567 1568 1569 1571 1572 1573 1576 1577 1579 1580 1581 1583 1588 1590 1591 1592 1594 1595 1596 1600 1602 1603 1604 1606 1611 1613 1614 1615 1617 1618 1619 1623 51 1626 1627 1629 1634 1636 1637 1638 1640 1641 1642 1646 1649 1650 52 1652 1657 1659 1660 1661 1663 1664 1665 1669 1672 1673 1674 1675 53 1680 1682 1683 1684 1686 1687 1688 1692 1695 1696 1697 1698 1702 1703 1704 1705 1707 1708 1709 1711 1714 1715 1717 1718 1719 1721 1722 1723 1724 55 1726 1729 1731 1733 1743 1745 1747 1751 1752 1753 1754 1758 1760 1762 1764 1766 1767 1768 1771 1774 1775 1778 1779 1780 1782 1783 1784 1785 1787 1788 1789 58 1793 1794 1796 1797 1801 1804 1807 1809 1810 59 1812 1814 1815 1816 1819 1820 1821 1822 1827 60 1831 1832 1834 1835 1837 1839 1840 1841 1842 1843 61 1853 1855 1857 1860 1862 1864 1866 1867 1868 1869 1870 1872 1873 1876 1878 1879 1880 63 1881 1884 1885 1888 1889 1890 1891 64 1897 1898 1899 1903 1912 1916 1918 1919 1921 66 1923 1924 1925 1928 1929 1931 1932 1933 1934 67 1936 1937 1942 1943 1945 1946 1950 1951 1952 1954 1955 69 1956 1957 1961 1963 1964 1967 1968 1971 71 1978 72 1980 1981 1983 1984 1985 73 1987 1988 1989 1990 74 1995 1997 76 1998 1999 2000 78 0
x 1051 1053 1057 1058 1060 1063 1064 1066 1068 1070 1071 1072 1073 1074 1076 1077 1079 1081 1085 1088 1090 1092 1093 1094 1095 1096 1098 1101 1102 1103 1107 1108 1109 1110 1112 1114 1117 1118 1119 1122 1126 1127 1128 1130 1132 1134 1136 1138 1139 1141 1142 1146 1149 1152 1153 1158 1160 1163 1165 1170 1172 1174 1175 1179 1182 1184 1185 1187 1194 1195 1197 1199 1200 1202 1203 1206 1209 1211 1212 1220 1224 1226 1227 1230 1231 1233 1236 1241 1242 1243 1246 1248 1249 1251 1255 1257 1258 1260 1264 1269 1270 1274 1275 37 1277 1278 1282 1284 1285 1286 1288 1289 1292 1294 1296 1298 38 1301 1305 1307 1308 1309 1311 1312 1315 1317 1319 1321 1324 1325 1328 1330 1331 1332 1334 1335 1338 1340 1342 1344 1347 1348 1350 40 1351 1353 1354 1355 1357 1358 1361 1363 1365 1367 1370 1371 1373 1374 1375 41 1376 1377 1378 1380 1381 1384 1386 1388 1390 1393 1394 1396 1397 1398 1400 42 1401 1403 1404 1407 1409 1411 1413 1416 1417 1419 1420 1421 1423 1426 1427 1430 1432 1434 1436 1439 1440 1442 1443 1444 1446 44 1453 1455 1457 1459 1462 1463 1465 1466 1467 1469 1474 1476 1478 1480 1482 1485 1486 1488 1489 1490 1492 1497 1499 1500 46 1501 1503 1505 1508 1509 1511 1512 1513 1515 1520 1522 1523 1524 47 1526 1528 1531 1532 1534 1535 1536 1538 1543 1545 1546 1547 1549 1550 1551 1554 1555 1557 1558 1559 1561 1566 1568 1569 1570 1572 1573 1574 49 1577 1578 1580 1581 1582 1584 1589 1591 1592 1593 1595 1596 1597 1601 1603 1604 1605 1607 1612 1614 1615 1616 1618 1619 1620 1624 51 1626 1627 1628 1630 1635 1637 1638 1639 1641 1642 1643 1647 1650 1651 1653 1658 1660 1661 1662 1664 1665 1666 1670 1673 1674 1675 1676 1681 1683 1684 1685 1687 1688 1689 1693 1696 1697 1698 1699 1701 1703 1706 1708 1709 1710 1712 1717 1718 1722 1723 1725 1727 1728 1729 1730 1737 1738 1741 1742 1745 1746 1747 1748 1749 1752 1753 1754 1755 1760 1764 1765 1767 1769 1770 1771 1772 1774 1775 1781 1785 1787 1788 1790 58 1794 1795 1797 1798 1799 1800 1801 1802 1803 1804 1805 1810 1812 1813 1814 1815 1816 1818 1820 1823 1824 1825 1827 1828 60 1832 1833 1837 1838 1839 1841 1842 1843 1848 1851 1852 1854 1855 1859 1863 1864 62 1870 1872 1873 1874 1876 1877 1879 1881 1888 1890 1892 1894 1895 1896 1897 1898 1908 1911 1912 1913 1914 1915 1919 1921 66 1923 1925 1926 1928 1929 1930 1933 1934 67 1936 1938 1939 1942 1945 68 1947 1948 1951 1953 1955 1958 1960 1961 1963 1964 1969 71 1974 1975 1976 1977 72 1980 1981 1982 73 1986 1987 1988 1990 74 1992 1993 1995 1996 1997 76 1999 2000 0
x 1051 1052 1054 1055 1056 1057 1058 1059 1061 1062 1063 1064 1065 1066 1067 1068 1073 1074 1076 1077 1078 1079 1081 1082 1087 1089 1090 1091 1092 1094 1097 1100 1101 1102 1105 1108 1109 1113 1114 1115 1116 1117 1118 1124 1125 1131 1133 1134 1137 1138 1139 1141 1142 1144 1148 1149 1152 1154 1158 1161 1162 1165 1166 1167 1168 1172 1174 1176 1177 1180 1182 1185 1189 1191 1192 1197 1199 1200 1203 1204 1206 1215 1216 1219 1220 1222 1223 1225 1226 1227 1228 1230 1232 1236 1239 1240 1242 1245 1246 1249 1251 1252 1254 1255 1256 1259 1260 1263 1264 1265 1267 1268 1269 1274 37 1276 1278 1279 1283 1285 1286 1287 1289 1290 1293 1295 1297 1299 1301 1302 1306 1308 1309 1310 1312 1313 1316 1318 1320 1322 1325 1329 1331 1332 1333 1335 1336 1339 1341 1343 1345 1348 1349 1352 1354 1355 1356 1358 1359 1362 1364 1366 1368 1371 1372 1374 1375 41 1377 1378 1379 1381 1382 1385 1387 1389 1391 1394 1395 1397 1398 1399 42 1401 1402 1404 1405 1408 1410 1412 1414 1417 1418 1420 1421 1422 1424 43 1427 1428 1431 1433 1435 1437 1440 1441 1443 1444 1445 1447 44 1451 1454 1456 1458 1460 1463 1464 1466 1467 1468 1470 1475 1477 1479 1481 1483 1486 1487 1489 1490 1491 1493 1498 1500 1502 1504 1506 1509 1510 1512 1513 1514 1516 1521 1523 1524 1525 1527 1529 1532 1533 1535 1536 1537 1539 1544 1546 1547 1548 1550 48 1552 1555 1556 1558 1559 1560 1562 1567 1569 1570 1571 1573 1574 1575 1578 1579 1581 1582 1583 1585 1590 1592 1593 1594 1596 1597 1598 50 1601 1602 1604 1605 1606 1608 1613 1615 1616 1617 1619 1620 1621 1625 51 1627 1628 1629 1631 1636 1638 1639 1640 1642 1643 1644 1648 52 1651 1652 1654 1659 1661 1662 1663 1665 1666 1667 1671 1674 1675 1677 1682 1684 1685 1686 1688 1689 1690 1694 1697 1698 1699 1700 54 1702 1703 1704 1706 1709 1711 1712 1713 1715 1716 1718 1720 1722 1724 1726 1727 1729 1730 1731 1740 1746 1749 1751 1753 1755 1759 1760 1761 1763 1764 1765 1767 1768 1769 1770 1771 1772 1773 1775 1776 1780 1781 1784 1785 1786 1788 58 1791 1794 1795 1798 1801 1802 1805 1807 1809 59 1813 1814 1815 1816 1817 1818 1820 1821 1822 1823 1824 1825 1826 1827 1828 1829 1830 1832 1833 1834 1835 1836 1838 1844 1845 1849 1854 1855 1857 1860 1861 1864 62 1867 1868 1872 1873 1878 1883 1884 1886 1887 1889 1893 64 1896 1897 1898 1900 1902 1903 1905 1908 65 1910 1914 1915 1916 1917 1920 1921 1922 66 1923 1930 1931 1932 1933 1935 1937 1940 1946 1947 1948 1953 1955 1957 1959 1962 1964 1965 1968 1969 1971 71 1976 1977 1978 1979 1980 1985 73 1987 1988 1990 74 1991 1994 1995 1997 1999 77 78 0
x -1051 1052 1057 1058 1059 1060 1061 1062 1063 1064 1067 1069 1072 1073 1074 1076 1078 1082 1083 1085 1088 1089 1091 1093 1095 1096 1097 1098 1099 1101 1102 1104 1106 1110 1113 1115 1117 1118 1119 1120 1121 1123 1126 1127 1128 1132 1133 1134 1135 1137 1139 1142 1143 1144 1147 1151 1152 1153 1155 1157 1159 1161 1163 1164 1166 1167 1171 1174 1177 1178 1183 1185 1188 1190 1195 1197 1199 1200 1204 1207 1209 1210 1212 1219 1220 1222 1224 1225 1227 1228 1231 1234 1236 1237 1245 1249 1251 1252 1255 1256 1258 1261 1266 1267 1268 1271 1273 1274 1276 1277 1279 1280 1284 1286 1287 1288 1290 1291 1294 1296 1298 1300 38 1302 1303 1307 1309 1310 1311 1313 1314 1317 1319 1321 1323 39 1326 1330 1332 1333 1334 1336 1337 1340 1342 1344 1346 1349 1350 1353 1355 1356 1357 1359 1360 1363 1365 1367 1369 1372 1373 1375 1376 1378 1379 1380 1382 1383 1386 1388 1390 1392 1395 1396 1398 1399 1400 1401 1402 1403 1405 1406 1409 1411 1413 1415 1418 1419 1421 1422 1423 1425 1426 1428 1429 1432 1434 1436 1438 1441 1442 1444 1445 1446 1448 44 1451 1452 1455 1457 1459 1461 1464 1465 1467 1468 1469 1471 1478 1480 1482 1484 1487 1488 1490 1491 1492 1494 1499 46 1501 1503 1505 1507 1510 1511 1513 1514 1515 1517 1522 1524 1525 47 1526 1528 1530 1533 1534 1536 1537 1538 1540 1545 1547 1548 1549 1551 1553 1556 1557 1559 1560 1561 1563 1568 1570 1571 1572 1574 1575 1576 1579 1580 1582 1583 1584 1586 1591 1593 1594 1595 1597 1598 1599 50 1602 1603 1605 1606 1607 1609 1614 1616 1617 1618 1620 1621 1622 51 1626 1628 1629 1630 1632 1637 1639 1640 1641 1643 1644 1645 1649 1651 1652 1653 1655 1660 1662 1663 1664 1666 1667 1668 1672 1675 53 1676 1678 1683 1685 1686 1687 1689 1690 1691 1695 1698 1699 1700 1702 1703 1704 1706 1707 1710 1712 1713 1714 1718 1719 1720 1723 55 1726 1727 1728 1729 1731 1732 1733 1735 1738 1739 1741 1742 1743 1745 1746 1747 56 1749 1752 1754 1756 1766 1768 1773 1774 1775 1776 1780 1782 1784 1786 1788 1789 1790 1792 1795 1796 1799 1800 1801 1803 1804 1805 1806 1808 1809 1810 1813 1814 1816 1817 1821 1824 1827 1829 1831 1833 1834 1835 1838 1839 1840 1841 1846 61 1849 1850 1852 1853 1855 1857 1858 1859 1860 1861 62 1870 1872 1874 1877 1879 1882 1883 1884 1885 1886 1888 1889 1892 1894 1895 1896 1899 1900 1903 1904 1905 1906 65 1911 1912 1913 1917 1925 1929 1931 1932 1934 67 1935 1936 1937 1940 1941 1943 1944 1945 1947 1948 1953 1954 69 1956 1960 1961 1962 1964 1965 1966 1970 1972 1975 1976 1979 1985 73 1986 1987 1989 1990 1992 1993 1994 75 1998 2000 78 0
x 1051 1052 1053 1056 1057 1059 1060 1061 1062 1065 1067 1068 1069 1072 1074 1075 1076 1077 1079 1080 1081 1082 1083 1084 1086 1087 1088 1089 1090 1091 1092 1093 1098 1099 1101 1102 1103 1104 1106 1107 1112 1114 1115 1116 1117 1119 1122 1125 1126 1127 1130 1133 1134 1138 1139 1140 1141 1142 1143 1149 1150 1156 1158 1159 1162 1163 1164 1166 1167 1169 1173 1174 1177 1179 1183 1186 1187 1190 1191 1192 1193 1197 1199 1201 1202 1205 1207 1210 1214 1216 1217 1222 1224 1225 1228 1229 1231 1240 1241 1244 1245 1247 1248 1250 1251 1252 1253 1255 1257 1261 1264 1265 1267 1270 1271 1274 1277 1278 1280 1281 1285 1287 1288 1289 1291 1292 1295 1297 1299 1301 1303 1304 1308 1310 1311 1312 1314 1315 1318 1320 1322 1324 39 1326 1327 1331 1333 1334 1335 1337 1338 1341 1343 1345 1347 1350 40 1354 1356 1357 1358 1360 1361 1364 1366 1368 1370 1373 1374 1377 1379 1380 1381 1383 1384 1387 1389 1391 1393 1396 1397 1399 1400 42 1402 1403 1404 1406 1407 1410 1412 1414 1416 1419 1420 1422 1423 1424 1426 1427 1429 1430 1433 1435 1437 1439 1442 1443 1445 1446 1447 1449 44 1452 1453 1456 1458 1460 1462 1465 1466 1468 1469 1470 1472 45 1476 1479 1481 1483 1485 1488 1489 1491 1492 1493 1495 1500 1502 1504 1506 1508 1511 1512 1514 1515 1516 1518 1523 1525 47 1527 1529 1531 1534 1535 1537 1538 1539 1541 1546 1548 1549 1550 48 1552 1554 1557 1558 1560 1561 1562 1564 1569 1571 1572 1573 1575 1577 1580 1581 1583 1584 1585 1587 1592 1594 1595 1596 1598 1599 1600 1603 1604 1606 1607 1608 1610 1615 1617 1618 1619 1621 1622 1623 51 1626 1627 1629 1630 1631 1633 1638 1640 1641 1642 1644 1645 1646 1650 52 1652 1653 1654 1656 1661 1663 1664 1665 1667 1668 1669 1673 53 1676 1677 1679 1684 1686 1687 1688 1690 1691 1692 1696 1699 1700 54 1703 1705 1714 1715 1716 1717 1719 1723 55 1725 1727 1730 1732 1733 1734 1736 1741 1742 1746 1747 56 1748 1750 1751 1752 1753 1760 1761 1764 1765 1768 1769 57 1770 1771 1774 1775 1776 1777 1782 1786 1787 1789 1791 1792 1793 1795 1796 1802 1806 1808 1809 1814 1815 1817 1818 1819 1820 1821 1822 1823 1824 1825 60 1831 1832 1833 1834 1835 1837 1839 1842 1843 1844 1846 1847 1850 1851 1855 1856 1857 1859 1860 1861 62 1865 1868 1869 1871 1872 1876 1880 1886 1888 1889 1890 1892 1893 1895 1896 1903 1905 1907 1909 1910 1911 1912 1922 66 1924 1925 1926 1927 1928 1932 1934 1935 1937 1938 1940 1941 1942 1945 1947 1949 1950 1953 1957 1958 1961 1963 1967 1969 1970 1972 71 1977 1981 1982 1983 1984 73 1986 1987 1988 74 1991 1992 1993 1996 1997 76 1998 1999 77 78 0
x -1053 1056 1058 1060 1061 1063 1067 1068 1070 1074 1075 1076 1077 1082 1083 1084 1085 1086 1087 1088 1089 1092 1094 1097 1098 1099 1101 1103 1107 1108 1110 1113 1114 1116 1118 1120 1121 1122 1123 1124 1126 1127 1129 1131 1135 1138 1140 1142 1143 1144 1145 1146 1148 1151 1152 1153 1157 1158 1159 1160 1162 1164 1167 1168 1169 1172 1176 1177 1178 1180 1182 1184 1186 1188 1189 1191 1192 1196 1199 1202 1203 1208 1210 1213 1215 1220 1222 1224 1225 1229 1232 1234 1235 1237 1244 1245 1247 1249 1250 1252 1253 1256 1259 1261 1262 1270 1274 37 1278 1279 1281 1282 1286 1288 1289 1290 1292 1293 1296 1298 1300 38 1301 1302 1304 1305 1309 1311 1312 1313 1315 1316 1319 1321 1323 1325 1327 1328 1332 1334 1335 1336 1338 1339 1342 1344 1346 1348 1351 1355 1357 1358 1359 1361 1362 1365 1367 1369 1371 1374 1375 1378 1380 1381 1382 1384 1385 1388 1390 1392 1394 1397 1398 1400 42 1401 1403 1404 1405 1407 1408 1411 1413 1415 1417 1420 1421 1423 1424 1425 1426 1427 1428 1430 1431 1434 1436 1438 1440 1443 1444 1446 1447 1448 1450 44 1451 1453 1454 1457 1459 1461 1463 1466 1467 1469 1470 1471 1473 45 1476 1477 1480 1482 1484 1486 1489 1490 1492 1493 1494 1496 1503 1505 1507 1509 1512 1513 1515 1516 1517 1519 1524 1526 1528 1530 1532 1535 1536 1538 1539 1540 1542 1547 1549 1550 48 1551 1553 1555 1558 1559 1561 1562 1563 1565 1570 1572 1573 1574 49 1576 1578 1581 1582 1584 1585 1586 1588 1593 1595 1596 1597 1599 1600 1601 1604 1605 1607 1608 1609 1611 1616 1618 1619 1620 1622 1623 1624 51 1627 1628 1630 1631 1632 1634 1639 1641 1642 1643 1645 1646 1647 1651 1653 1654 1655 1657 1662 1664 1665 1666 1668 1669 1670 1674 53 1676 1677 1678 1680 1685 1687 1688 1689 1691 1692 1693 1697 1700 54 1701 1703 1704 1707 1715 1716 1719 1720 1721 1722 1724 55 1726 1727 1728 1730 1733 1735 1736 1737 1739 1740 1742 1744 1746 1749 1750 1752 1753 1754 1763 1769 57 1771 1773 1775 1777 1781 1782 1783 1785 1786 1787 1789 1790 1791 1792 1793 1794 1796 1797 1801 1802 1805 1806 1807 1809 59 1811 1814 1815 1818 1821 1822 1825 1827 1829 60 1832 1833 1834 1835 1836 1837 1839 1840 1841 1842 1843 1844 1845 1846 1847 1848 1850 1851 1852 1853 1854 1856 1862 1863 62 1866 1871 1872 1874 1877 1878 63 1883 1884 1888 1889 1894 64 1898 1899 1901 1902 1904 1908 1910 1911 1912 1914 1916 1917 1919 1922 1923 1927 1928 1929 1930 1933 1934 1935 1942 1943 1944 1945 68 1946 1948 1951 69 1956 1957 1958 1963 70 1966 1968 1971 71 1973 1976 1977 1979 1983 1984 1985 73 1986 74 1992 1993 1995 1998 0
x -1054 1058 1061 1062 1065 1069 1070 1073 1074 1075 1076 1077 1078 1081 1082 1084 1085 1086 1087 1090 1092 1093 1094 1097 1099 1100 1101 1102 1104 1105 1106 1107 1108 1109 1111 1112 1113 1114 1115 1116 1117 1118 1123 1124 1126 1127 1128 1129 1131 1132 1137 1139 1140 1141 1142 1144 1147 1150 1151 1152 1155 1158 1159 1163 1164 1165 1166 1167 1168 1174 1175 1181 1183 1184 1187 1188 1189 1191 1192 1194 1198 1199 1202 1204 1208 1211 1212 1215 1216 1217 1218 1222 1224 1226 1227 1230 1232 1235 1239 1241 1242 1247 1249 1250 1253 1254 1256 1265 1266 1269 1270 1272 1273 1275 37 1276 1279 1280 1282 1283 1287 1289 1290 1291 1293 1294 1297 1299 1302 1303 1305 1306 1310 1312 1313 1314 1316 1317 1320 1322 1324 1326 1328 1329 1333 1335 1336 1337 1339 1340 1343 1345 1347 1349 40 1351 1352 1356 1358 1359 1360 1362 1363 1366 1368 1370 1372 1375 1379 1381 1382 1383 1385 1386 1389 1391 1393 1395 1398 1399 42 1402 1404 1405 1406 1408 1409 1412 1414 1416 1418 1421 1422 1424 1425 43 1427 1428 1429 1431 1432 1435 1437 1439 1441 1444 1445 1447 1448 1449 1451 1452 1454 1455 1458 1460 1462 1464 1467 1468 1470 1471 1472 1474 45 1477 1478 1481 1483 1485 1487 1490 1491 1493 1494 1495 1497 1501 1504 1506 1508 1510 1513 1514 1516 1517 1518 1520 1525 1527 1529 1531 1533 1536 1537 1539 1540 1541 1543 1548 1550 48 1552 1554 1556 1559 1560 1562 1563 1564 1566 1571 1573 1574 1575 1577 1579 1582 1583 1585 1586 1587 1589 1594 1596 1597 1598 1600 50 1602 1605 1606 1608 1609 1610 1612 1617 1619 1620 1621 1623 1624 1625 51 1628 1629 1631 1632 1633 1635 1640 1642 1643 1644 1646 1647 1648 1651 1652 1654 1655 1656 1658 1663 1665 1666 1667 1669 1670 1671 1675 53 1677 1678 1679 1681 1686 1688 1689 1690 1692 1693 1694 1698 1701 1702 1704 1709 1712 1714 1716 1718 1720 1723 1724 1726 1727 1728 1730 1731 1734 1736 1737 1738 1742 1743 1744 1747 1749 1750 1751 1752 1754 1755 1756 1758 1761 1762 1764 1765 1766 1768 1769 57 1771 1774 1776 1778 1788 1790 1794 1795 1796 1797 1801 1803 1805 1807 1809 1810 1812 1815 1816 1819 1820 1821 1823 1824 1825 1826 1828 1829 60 1832 1833 1835 1836 1840 1843 1846 1849 1851 1852 1853 1856 1857 1858 1859 1864 62 1866 1867 1869 1870 1872 1874 1875 1876 1877 1878 63 1886 1888 1890 1893 1895 64 1897 1898 1899 1900 1901 1903 1904 1907 1909 1910 1913 1914 1917 1918 1919 1920 1924 1925 1926 1930 1937 1941 1943 1944 68 1946 1947 1948 1951 1952 1954 1955 1957 1958 1963 1964 1965 1969 1970 1971 1973 1974 1978 72 1982 1983 74 1991 1992 1994 1996 1997 77 2000 78 0
x -1053 1057 1058 1059 1062 1066 1067 1068 1071 1078 1081 1083 1085 1086 1088 1092 1093 1095 1099 1100 1101 1102 1107 1108 1109 1110 1111 1112 1113 1114 1117 1119 1122 1123 1124 1126 1128 1132 1133 1135 1138 1139 1141 1143 1145 1146 1147 1148 1149 1151 1152 1154 1156 1160 1163 1165 1167 1168 1169 1170 1171 1173 1176 1177 1178 1182 1183 1184 1185 1187 1189 1192 1193 1194 1197 1201 1202 1203 1205 1207 1209 1211 1213 1214 1216 1217 1221 1224 1227 1228 1233 1235 1238 1240 1245 1247 1249 1250 1254 1257 1259 1260 1262 1269 1270 1272 1274 1275 37 1276 1277 1280 1281 1283 1284 1288 1290 1291 1292 1294 1295 1298 1300 38 1303 1304 1306 1307 1311 1313 1314 1315 1317 1318 1321 1323 1325 39 1326 1327 1329 1330 1334 1336 1337 1338 1340 1341 1344 1346 1348 1350 1352 1353 1357 1359 1360 1361 1363 1364 1367 1369 1371 1373 1376 1380 1382 1383 1384 1386 1387 1390 1392 1394 1396 1399 1400 42 1403 1405 1406 1407 1409 1410 1413 1415 1417 1419 1422 1423 1425 1426 1428 1429 1430 1432 1433 1436 1438 1440 1442 1445 1446 1448 1449 1450 44 1451 1452 1453 1455 1456 1459 1461 1463 1465 1468 1469 1471 1472 1473 1475 1476 1478 1479 1482 1484 1486 1488 1491 1492 1494 1495 1496 1498 1501 1502 1505 1507 1509 1511 1514 1515 1517 1518 1519 1521 47 1528 1530 1532 1534 1537 1538 1540 1541 1542 1544 1549 1551 1553 1555 1557 1560 1561 1563 1564 1565 1567 1572 1574 1575 1576 1578 1580 1583 1584 1586 1587 1588 1590 1595 1597 1598 1599 50 1601 1603 1606 1607 1609 1610 1611 1613 1618 1620 1621 1622 1624 1625 1626 1629 1630 1632 1633 1634 1636 1641 1643 1644 1645 1647 1648 1649 1652 1653 1655 1656 1657 1659 1664 1666 1667 1668 1670 1671 1672 53 1676 1678 1679 1680 1682 1687 1689 1690 1691 1693 1694 1695 1699 1703 1704 1705 1707 1708 1710 1713 1715 1717 1718 1720 1721 1722 1723 1724 55 1727 1729 1738 1739 1740 1741 1743 1747 56 1748 1750 1753 1755 1756 1757 1759 1764 1765 1769 57 1770 1772 1773 1774 1775 1782 1783 1786 1787 1790 58 1791 1792 1795 1796 1797 1798 1803 1807 1808 1810 59 1811 1812 1813 1815 1816 1822 1826 1828 1829 1833 1834 1836 1837 1838 1839 1840 1841 1842 1843 1844 61 1849 1850 1851 1852 1853 1855 1857 1860 1861 1862 1864 62 1867 1868 1872 1873 1874 1876 1877 1878 63 1881 1884 1885 1887 1888 1892 64 1901 1903 1904 1905 1907 1908 1910 1917 1919 1921 1923 1924 1925 67 1936 1937 1938 1939 1940 1944 1946 1948 1949 1951 1952 1953 1957 1959 1960 1963 1966 1967 1970 1972 71 1975 1977 1978 1984 73 1987 1988 1989 1990 74 1991 1992 1993 75 1995 1996 1997 76 1999 77 2000 0
x -1051 1054 1063 1065 1066 1067 1068 1071 1074 1075 1079 1083 1086 1087 1090 1094 1095 1098 1099 1100 1101 1102 1103 1106 1107 1109 1110 1111 1112 1115 1117 1118 1119 1122 1124 1125 1126 1127 1129 1130 1131 1132 1133 1134 1136 1137 1138 1139 1140 1141 1142 1143 1148 1149 1151 1152 1153 1154 1156 1157 1162 1164 1165 1166 1167 1169 1172 1175 1176 1177 1180 1183 1184 1188 1189 1190 1191 1192 1193 1199 1200 1206 1208 1209 1212 1213 1214 1216 1217 1219 1223 1224 1227 1229 1233 1236 1237 1240 1241 1242 1243 1247 1249 1251 1252 1255 1257 1260 1264 1266 1267 1272 1274 1275 37 1277 1278 1281 1282 1284 1285 1289 1291 1292 1293 1295 1296 1299 1301 1304 1305 1307 1308 1312 1314 1315 1316 1318 1319 1322 1324 39 1327 1328 1330 1331 1335 1337 1338 1339 1341 1342 1345 1347 1349 40 1351 1353 1354 1358 1360 1361 1362 1364 1365 1368 1370 1372 1374 1376 1377 1381 1383 1384 1385 1387 1388 1391 1393 1395 1397 1400 1404 1406 1407 1408 1410 1411 1414 1416 1418 1420 1423 1424 43 1427 1429 1430 1431 1433 1434 1437 1439 1441 1443 1446 1447 1449 1450 1452 1453 1454 1456 1457 1460 1462 1464 1466 1469 1470 1472 1473 1474 1476 1477 1479 1480 1483 1485 1487 1489 1492 1493 1495 1496 1497 1499 46 1502 1503 1506 1508 1510 1512 1515 1516 1518 1519 1520 1522 1526 1529 1531 1533 1535 1538 1539 1541 1542 1543 1545 1550 48 1552 1554 1556 1558 1561 1562 1564 1565 1566 1568 1573 1575 1577 1579 1581 1584 1585 1587 1588 1589 1591 1596 1598 1599 1600 50 1602 1604 1607 1608 1610 1611 1612 1614 1619 1621 1622 1623 1625 51 1627 1630 1631 1633 1634 1635 1637 1642 1644 1645 1646 1648 1649 1650 52 1653 1654 1656 1657 1658 1660 1665 1667 1668 1669 1671 1672 1673 1676 1677 1679 1680 1681 1683 1688 1690 1691 1692 1694 1695 1696 1700 1702 1704 1705 1708 1710 1711 1713 1714 1715 1716 1721 1724 1725 1727 1728 1731 1739 1740 1743 1744 1745 1746 56 1749 1750 1751 1753 1756 1758 1759 1760 1762 1763 1765 1767 1769 57 1771 1772 1774 1775 1776 1785 58 1792 1794 1796 1798 1802 1803 1804 1806 1807 1808 1810 59 1811 1812 1813 1814 1816 1817 1821 1822 1825 1826 1827 1829 1830 1833 1834 1837 1840 1841 1844 1846 1850 1851 1852 1853 1854 1855 1857 1858 1859 1860 1861 1862 1863 1864 1865 1867 1868 1869 1870 1871 1873 1879 1880 1882 1887 1888 1890 1893 1894 1898 1899 1903 1904 1909 1912 1913 1915 1916 1918 1922 1923 1924 1925 1927 1929 1930 1932 1935 1939 1940 1941 1942 1945 68 1946 1953 1954 1955 1956 1958 1961 1965 1966 1967 1972 71 1974 1976 1979 72 1980 1983 1984 73 1989 1990 74 1991 1996 1997 1998 77 2000 0
x 1051 1052 1054 1055 1056 1058 1059 1066 1067 1071 1072 1078 1082 1083 1084 1087 1091 1092 1093 1096 1103 1106 1108 1110 1111 1113 1117 1118 1120 1124 1125 1126 1127 1132 1133 1134 1135 1136 1137 1138 1139 1142 1144 1147 1148 1149 1151 1153 1157 1158 1160 1163 1164 1166 1168 1170 1171 1172 1173 1174 1176 1177 1179 1181 1185 1188 1190 1192 1193 1194 1195 1196 1198 1201 1202 1203 1207 1208 1209 1210 1212 1214 1217 1218 1219 1222 1226 1227 1228 1230 1232 1234 1236 1238 1239 1241 1242 1246 1249 1252 1253 1258 1260 1263 1265 1270 1272 1274 1275 37 1278 1279 1282 1283 1285 1286 1290 1292 1293 1294 1296 1297 1300 38 1301 1302 1305 1306 1308 1309 1313 1315 1316 1317 1319 1320 1323 1325 1328 1329 1331 1332 1336 1338 1339 1340 1342 1343 1346 1348 1350 1351 1352 1354 1355 1359 1361 1362 1363 1365 1366 1369 1371 1373 1375 41 1377 1378 1382 1384 1385 1386 1388 1389 1392 1394 1396 1398 1401 1405 1407 1408 1409 1411 1412 1415 1417 1419 1421 1424 1425 1428 1430 1431 1432 1434 1435 1438 1440 1442 1444 1447 1448 1450 1451 1453 1454 1455 1457 1458 1461 1463 1465 1467 1470 1471 1473 1474 1475 1476 1477 1478 1480 1481 1484 1486 1488 1490 1493 1494 1496 1497 1498 1500 1501 1503 1504 1507 1509 1511 1513 1516 1517 1519 1520 1521 1523 1526 1527 1530 1532 1534 1536 1539 1540 1542 1543 1544 1546 1553 1555 1557 1559 1562 1563 1565 1566 1567 1569 1574 1576 1578 1580 1582 1585 1586 1588 1589 1590 1592 1597 1599 1600 50 1601 1603 1605 1608 1609 1611 1612 1613 1615 1620 1622 1623 1624 51 1626 1628 1631 1632 1634 1635 1636 1638 1643 1645 1646 1647 1649 1650 1651 1654 1655 1657 1658 1659 1661 1666 1668 1669 1670 1672 1673 1674 53 1677 1678 1680 1681 1682 1684 1689 1691 1692 1693 1695 1696 1697 1701 1706 1708 1711 1712 1714 1715 1716 1717 1719 1720 1721 1722 1723 1724 55 1725 1726 1728 1733 1736 1738 1740 1742 1744 1747 1749 1750 1751 1753 1754 1757 1759 1760 1761 1765 1766 1767 1771 1772 1773 1774 1776 1777 1778 1780 1783 1784 1786 1787 1788 1790 58 1792 1795 1797 1799 1809 1814 1815 1816 1817 1821 1823 1825 1827 1829 1831 1834 1835 1838 1839 1840 1842 1843 1844 1845 1847 1850 1851 1853 1854 1858 1861 1864 1866 1868 1869 1870 1873 1874 1875 1876 1882 1883 1885 1886 1888 1890 1891 1892 1893 1894 1901 1903 1905 1908 65 1911 1912 1913 1914 1915 1917 1918 1921 1923 1926 1927 1930 1931 1932 1933 1936 1937 1938 1942 68 1948 1952 1954 1955 1956 1957 1958 1961 1962 1964 70 1966 1967 1972 71 1973 1977 1978 1979 1980 1981 1985 1988 1989 74 75 1995 1996 76 1999 77 78 0
x -1051 1053 1055 1056 1057 1061 1066 1068 1070 1075 1076 1079 1088 1090 1091 1092 1093 1096 1099 1100 1104 1108 1111 1112 1115 1119 1120 1123 1124 1125 1126 1127 1128 1131 1132 1134 1135 1136 1137 1140 1142 1143 1144 1147 1149 1150 1151 1152 1154 1155 1156 1157 1158 1159 1161 1162 1163 1164 1165 1166 1167 1168 1173 1174 1176 1177 1178 1179 1181 1182 1187 1189 1190 1191 1192 1194 1197 1200 1201 1202 1205 1208 1209 1213 1214 1215 1216 1217 1218 1224 1225 1231 1233 1234 1237 1238 1239 1241 1242 1244 1248 1249 1252 1254 1258 1261 1262 1265 1266 1267 1268 1272 1274 37 1279 1280 1283 1284 1286 1287 1291 1293 1294 1295 1297 1298 38 1302 1303 1306 1307 1309 1310 1314 1316 1317 1318 1320 1321 1324 1326 1329 1330 1332 1333 1337 1339 1340 1341 1343 1344 1347 1349 40 1352 1353 1355 1356 1360 1362 1363 1364 1366 1367 1370 1372 1374 41 1376 1378 1379 1383 1385 1386 1387 1389 1390 1393 1395 1397 1399 42 1401 1402 1406 1408 1409 1410 1412 1413 1416 1418 1420 1422 1425 43 1429 1431 1432 1433 1435 1436 1439 1441 1443 1445 1448 1449 44 1452 1454 1455 1456 1458 1459 1462 1464 1466 1468 1471 1472 1474 1475 1477 1478 1479 1481 1482 1485 1487 1489 1491 1494 1495 1497 1498 1499 1501 1502 1504 1505 1508 1510 1512 1514 1517 1518 1520 1521 1522 1524 1527 1528 1531 1533 1535 1537 1540 1541 1543 1544 1545 1547 1551 1554 1556 1558 1560 1563 1564 1566 1567 1568 1570 1575 49 1577 1579 1581 1583 1586 1587 1589 1590 1591 1593 1598 1600 50 1602 1604 1606 1609 1610 1612 1613 1614 1616 1621 1623 1624 1625 1627 1629 1632 1633 1635 1636 1637 1639 1644 1646 1647 1648 1650 1652 1655 1656 1658 1659 1660 1662 1667 1669 1670 1671 1673 1674 1675 1678 1679 1681 1682 1683 1685 1690 1692 1693 1694 1696 1697 1698 1701 1702 1703 1709 1710 1711 1712 1713 1714 1715 1717 1718 1719 1721 1722 55 1727 1728 1729 1731 1732 1734 1737 1739 1741 1742 1744 1745 1746 1747 1750 1752 1761 1762 1763 1764 1766 57 1770 1772 1775 1777 1778 1779 1781 1786 1787 1791 1793 1794 1795 1796 1803 1804 1807 1808 59 1811 1812 1815 1816 1817 1818 1823 1827 1828 1830 1831 1832 1834 1835 1841 1845 1847 1851 1852 1854 1855 1856 1857 1858 1859 1860 1861 1862 62 1866 1867 1868 1869 1870 1872 1874 1877 1878 1879 63 1883 1884 1888 1889 1890 1892 1893 1894 1896 1899 1900 1902 1903 1907 65 1915 1917 1918 1919 1921 1922 66 1923 1930 1932 1934 67 1935 1936 1937 68 1947 1948 1949 1950 1951 1955 1956 1958 1959 1961 1962 1963 1966 1968 1969 1972 1974 1975 1978 1982 1984 1985 73 1990 1992 1993 1994 75 1995 1996 1997 1998 1999 0
x 1054 1055 1056 1058 1059 1060 1062 1065 1067 1070 1071 1072 1076 1077 1079 1080 1081 1083 1084 1091 1092 1096 1097 1103 1107 1108 1109 1112 1116 1117 1118 1121 1128 1131 1133 1135 1136 1138 1142 1143 1145 1149 1150 1151 1152 1157 1158 1159 1160 1161 1162 1163 1164 1167 1169 1172 1173 1174 1176 1178 1182 1183 1185 1188 1189 1191 1193 1195 1196 1197 1198 1199 1201 1202 1204 1206 1210 1213 1215 1217 1218 1219 1220 1221 1223 1226 1227 1228 1232 1233 1234 1235 1237 1239 1242 1243 1244 1247 1251 1252 1253 1255 1257 1259 1261 1263 1264 1266 1267 1271 1274 37 1280 1281 1284 1285 1287 1288 1292 1294 1295 1296 1298 1299 1303 1304 1307 1308 1310 1311 1315 1317 1318 1319 1321 1322 1325 39 1326 1327 1330 1331 1333 1334 1338 1340 1341 1342 1344 1345 1348 1350 1353 1354 1356 1357 1361 1363 1364 1365 1367 1368 1371 1373 1375 1376 1377 1379 1380 1384 1386 1387 1388 1390 1391 1394 1396 1398 1400 42 1402 1403 1407 1409 1410 1411 1413 1414 1417 1419 1421 1423 43 1426 1430 1432 1433 1434 1436 1437 1440 1442 1444 1446 1449 1450 44 1453 1455 1456 1457 1459 1460 1463 1465 1467 1469 1472 1473 1475 45 1476 1478 1479 1480 1482 1483 1486 1488 1490 1492 1495 1496 1498 1499 1500 46 1501 1502 1503 1505 1506 1509 1511 1513 1515 1518 1519 1521 1522 1523 1525 47 1526 1528 1529 1532 1534 1536 1538 1541 1542 1544 1545 1546 1548 48 1551 1552 1555 1557 1559 1561 1564 1565 1567 1568 1569 1571 1578 1580 1582 1584 1587 1588 1590 1591 1592 1594 1599 50 1601 1603 1605 1607 1610 1611 1613 1614 1615 1617 1622 1624 1625 51 1626 1628 1630 1633 1634 1636 1637 1638 1640 1645 1647 1648 1649 52 1651 1653 1656 1657 1659 1660 1661 1663 1668 1670 1671 1672 1674 1675 53 1676 1679 1680 1682 1683 1684 1686 1691 1693 1694 1695 1697 1698 1699 54 1701 1703 1706 1709 1711 1712 1713 1714 1715 1716 1718 1719 1721 1723 1724 55 1726 1728 1729 1732 1734 1735 1737 1738 1739 1740 1745 56 1748 1750 1751 1754 1762 1763 1766 1767 1768 1769 57 1771 1772 1773 1775 1778 1780 1781 1782 1784 1785 1787 1789 58 1792 1793 1795 1796 1797 1806 59 1812 1814 1816 1818 1822 1823 1824 1826 1827 1828 60 1830 1831 1832 1833 1835 1836 1840 1841 1844 1845 1846 1848 1851 1852 1855 1858 1859 1862 1864 1867 1868 1869 1870 1871 1872 1874 1875 1876 1877 1878 1879 1880 63 1881 1883 1884 1885 1886 1887 1889 1895 64 1897 1902 1903 1905 1908 1909 65 1912 1913 1917 1918 1925 1926 1928 1929 1931 67 1935 1936 1937 1939 1941 1942 1944 68 1946 1950 1951 1952 1953 1956 1963 1964 1965 1967 1970 1973 1974 1975 72 1981 1983 1986 1989 1990 74 1994 1995 1999 77 2000 78 0
x -1052 1053 1055 1056 1057 1059 1062 1063 1066 1067 1072 1074 1076 1078 1080 1081 1082 1086 1091 1093 1095 1100 1101 1104 1113 1115 1116 1117 1118 1121 1124 1125 1129 1133 1136 1137 1140 1144 1145 1148 1149 1150 1151 1152 1153 1156 1157 1159 1160 1161 1162 1165 1167 1168 1169 1172 1174 1175 1176 1177 1179 1180 1181 1182 1183 1184 1186 1187 1188 1189 1190 1191 1192 1193 1198 1199 1201 1202 1203 1204 1206 1207 1212 1214 1215 1216 1217 1219 1222 1225 1226 1227 1230 1233 1234 1238 1239 1240 1241 1242 1243 1249 1250 1256 1258 1259 1262 1263 1264 1266 1267 1269 1273 1274 1281 1282 1285 1286 1288 1289 1293 1295 1296 1297 1299 1300 38 1304 1305 1308 1309 1311 1312 1316 1318 1319 1320 1322 1323 1327 1328 1331 1332 1334 1335 1339 1341 1342 1343 1345 1346 1349 40 1351 1354 1355 1357 1358 1362 1364 1365 1366 1368 1369 1372 1374 1377 1378 1380 1381 1385 1387 1388 1389 1391 1392 1395 1397 1399 1401 1403 1404 1408 1410 1411 1412 1414 1415 1418 1420 1422 1424 43 1426 1427 1431 1433 1434 1435 1437 1438 1441 1443 1445 1447 1450 44 1454 1456 1457 1458 1460 1461 1464 1466 1468 1470 1473 1474 1477 1479 1480 1481 1483 1484 1487 1489 1491 1493 1496 1497 1499 1500 1502 1503 1504 1506 1507 1510 1512 1514 1516 1519 1520 1522 1523 1524 1526 1527 1529 1530 1533 1535 1537 1539 1542 1543 1545 1546 1547 1549 1552 1553 1556 1558 1560 1562 1565 1566 1568 1569 1570 1572 49 1576 1579 1581 1583 1585 1588 1589 1591 1592 1593 1595 1600 1602 1604 1606 1608 1611 1612 1614 1615 1616 1618 1623 1625 1627 1629 1631 1634 1635 1637 1638 1639 1641 1646 1648 1649 1650 1652 1654 1657 1658 1660 1661 1662 1664 1669 1671 1672 1673 1675 1677 1680 1681 1683 1684 1685 1687 1692 1694 1695 1696 1698 1699 1700 1707 1708 1710 1711 1713 1714 1716 1719 1721 1722 55 1725 1730 1732 1735 1736 1738 1739 1740 1741 1743 1744 1745 1746 1747 56 1748 1749 1751 1756 1759 1761 1763 1765 1767 57 1771 1772 1773 1775 1776 1779 1781 1782 1783 1787 1788 1789 1792 1793 1794 1795 1797 1798 1799 1801 1804 1805 1807 1808 1809 1812 1815 1817 1819 1829 1833 1834 1835 1836 1840 1842 1844 1846 61 1849 1852 1853 1856 1857 1858 1860 1861 1862 1863 1867 1868 1870 1871 1875 1878 63 1882 1884 1885 1886 1889 1890 1891 1892 64 1897 1898 1900 1901 1903 1905 1906 1907 1908 1909 65 1915 1917 1919 1922 1924 1925 1926 1927 1928 1930 1931 1934 1935 1938 1939 1942 1943 1944 1945 1947 1948 1949 1953 1958 1962 1964 1965 1966 1967 1970 1971 1974 1975 1980 1984 1985 1986 1987 1993 1994 75 76 1998 1999 0
x 1054 1057 1061 1063 1064 1066 1067 1068 1070 1071 1075 1079 1080 1081 1083 1084 1085 1087 1090 1092 1095 1096 1097 1101 1102 1104 1105 1106 1108 1109 1116 1117 1121 1122 1128 1132 1133 1134 1137 1141 1142 1143 1146 1153 1156 1158 1160 1161 1163 1167 1168 1170 1174 1175 1176 1177 1182 1183 1184 1185 1186 1187 1188 1189 1192 1194 1197 1198 1199 1201 1203 1207 1208 1210 1213 1214 1216 1218 1220 1221 1222 1223 1224 1226 1227 1229 1231 1235 1238 1240 1242 1243 1244 1245 1246 1248 1251 1252 1253 1257 1258 1259 1260 1262 1264 1267 1268 1269 1272 37 1276 1282 1283 1286 1287 1289 1290 1294 1296 1297 1298 1300 38 1305 1306 1309 1310 1312 1313 1317 1319 1320 1321 1323 1324 1328 1329 1332 1333 1335 1336 1340 1342 1343 1344 1346 1347 1350 1351 1352 1355 1356 1358 1359 1363 1365 1366 1367 1369 1370 1373 1375 41 1378 1379 1381 1382 1386 1388 1389 1390 1392 1393 1396 1398 1400 42 1401 1402 1404 1405 1409 1411 1412 1413 1415 1416 1419 1421 1423 1425 43 1427 1428 1432 1434 1435 1436 1438 1439 1442 1444 1446 1448 1451 1455 1457 1458 1459 1461 1462 1465 1467 1469 1471 1474 1475 45 1478 1480 1481 1482 1484 1485 1488 1490 1492 1494 1497 1498 1500 1501 1503 1504 1505 1507 1508 1511 1513 1515 1517 1520 1521 1523 1524 1525 47 1526 1527 1528 1530 1531 1534 1536 1538 1540 1543 1544 1546 1547 1548 1550 48 1551 1553 1554 1557 1559 1561 1563 1566 1567 1569 1570 1571 1573 1576 1577 1580 1582 1584 1586 1589 1590 1592 1593 1594 1596 1603 1605 1607 1609 1612 1613 1615 1616 1617 1619 1624 1626 1628 1630 1632 1635 1636 1638 1639 1640 1642 1647 1649 1650 52 1651 1653 1655 1658 1659 1661 1662 1663 1665 1670 1672 1673 1674 53 1676 1678 1681 1682 1684 1685 1686 1688 1693 1695 1696 1697 1699 1700 1702 1703 1705 1707 1708 1709 1710 1712 1714 1715 1717 1720 1721 55 1725 1726 1727 1733 1734 1735 1736 1737 1738 1739 1741 1742 1743 1745 1746 1750 1751 1752 1754 1755 1757 1760 1762 1764 1765 1767 1768 1769 1772 1774 1783 1784 1785 1786 1788 58 1791 1793 1796 1798 1799 1800 1802 1807 1808 1811 1813 1814 1815 1816 1823 1824 1827 1828 60 1830 1831 1834 1835 1836 1837 1842 1846 1847 1848 1849 1850 1852 1853 1859 1863 1868 1869 1871 1872 1873 1874 1875 1876 1877 1878 1879 63 1882 1883 1884 1885 1886 1888 1890 1893 1894 1895 64 1898 1899 1903 1904 1905 1907 1908 1909 1910 1913 1914 1916 1917 1921 1928 1930 1931 1932 1934 1935 1942 1944 68 1946 1947 1948 69 1957 1958 1959 1960 1961 1965 1967 1968 1970 1971 1972 1974 1976 1977 72 1981 1982 1985 73 1988 1990 74 75 1996 1997 76 1998 1999 2000 78 0
x -1051 1053 1054 1055 1058 1061 1063 1064 1065 1067 1071 1074 1075 1077 1078 1080 1081 1082 1084 1087 1088 1091 1092 1097 1099 1101 1103 1105 1106 1107 1111 1116 1118 1120 1125 1126 1129 1138 1140 1141 1142 1143 1146 1149 1150 1154 1158 1161 1162 1165 1169 1170 1173 1174 1175 1176 1177 1178 1181 1182 1184 1185 1186 1187 1190 1192 1193 1194 1197 1199 1200 1201 1202 1204 1205 1206 1207 1208 1209 1211 1212 1213 1214 1215 1216 1217 1218 1223 1224 1226 1227 1228 1229 1231 1232 1237 1239 1240 1241 1242 1244 1247 1250 1251 1252 1255 1258 1259 1263 1264 1265 1266 1267 1268 1274 1275 1276 1277 1283 1284 1287 1288 1290 1291 1295 1297 1298 1299 1306 1307 1310 1311 1313 1314 1318 1320 1321 1322 1324 1325 39 1329 1330 1333 1334 1336 1337 1341 1343 1344 1345 1347 1348 1352 1353 1356 1357 1359 1360 1364 1366 1367 1368 1370 1371 1374 41 1376 1379 1380 1382 1383 1387 1389 1390 1391 1393 1394 1397 1399 1402 1403 1405 1406 1410 1412 1413 1414 1416 1417 1420 1422 1424 43 1426 1428 1429 1433 1435 1436 1437 1439 1440 1443 1445 1447 1449 1451 1452 1456 1458 1459 1460 1462 1463 1466 1468 1470 1472 1475 45 1479 1481 1482 1483 1485 1486 1489 1491 1493 1495 1498 1499 1502 1504 1505 1506 1508 1509 1512 1514 1516 1518 1521 1522 1524 1525 1527 1528 1529 1531 1532 1535 1537 1539 1541 1544 1545 1547 1548 1549 48 1551 1552 1554 1555 1558 1560 1562 1564 1567 1568 1570 1571 1572 1574 1577 1578 1581 1583 1585 1587 1590 1591 1593 1594 1595 1597 50 1601 1604 1606 1608 1610 1613 1614 1616 1617 1618 1620 1625 51 1627 1629 1631 1633 1636 1637 1639 1640 1641 1643 1648 1650 52 1652 1654 1656 1659 1660 1662 1663 1664 1666 1671 1673 1674 1675 53 1677 1679 1682 1683 1685 1686 1687 1689 1694 1696 1697 1698 1700 1704 1705 1706 1708 1710 1711 1712 1715 55 1725 1727 1730 1733 1735 1736 1737 1738 1739 1740 1742 1743 1745 1747 1749 1751 1752 1755 1757 1758 1760 1761 1762 1763 1768 57 1770 1772 1773 1776 1784 1785 1788 1789 1790 58 1792 1793 1794 1796 1799 1801 1802 1803 1805 1806 1808 1810 59 1812 1813 1815 1816 1817 1826 1831 1833 1835 1837 1841 1842 1843 1845 1846 1847 61 1848 1849 1850 1851 1853 1854 1858 1859 1862 1863 1864 62 1865 1868 1869 1872 1875 1876 1879 1883 1884 1885 1886 1887 1888 1890 1891 1892 1893 1894 1895 1896 1898 1899 1900 1901 1902 1904 65 1911 1916 1917 1919 1922 66 1925 1926 1930 1931 1937 1938 1940 1941 1943 68 1946 1947 1948 1950 1952 1953 1955 1956 1960 1961 1962 1963 1965 1972 71 1973 1975 1978 72 1980 1981 1982 73 1987 1989 74 1991 1994 76 1998 77 0
x -1052 1055 1056 1057 1061 1064 1065 1066 1067 1068 1071 1074 1075 1079 1082 1086 1088 1089 1091 1092 1093 1095 1096 1100 1104 1105 1106 1108 1109 1110 1112 1115 1117 1120 1121 1122 1126 1127 1129 1130 1131 1133 1134 1141 1142 1146 1147 1153 1157 1158 1159 1162 1166 1167 1168 1171 1178 1181 1183 1185 1186 1188 1192 1193 1195 1199 1200 1201 1202 1207 1208 1209 1210 1211 1212 1213 1214 1217 1219 1222 1223 1224 1226 1228 1232 1233 1235 1238 1239 1241 1243 1245 1246 1247 1248 1249 1251 1252 1254 1256 1260 1263 1265 1267 1268 1269 1270 1271 1273 1277 1278 1284 1285 1288 1289 1291 1292 1296 1298 1299 1300 38 1301 1307 1308 1311 1312 1314 1315 1319 1321 1322 1323 1325 1330 1331 1334 1335 1337 1338 1342 1344 1345 1346 1348 1349 1353 1354 1357 1358 1360 1361 1365 1367 1368 1369 1371 1372 1375 1376 1377 1380 1381 1383 1384 1388 1390 1391 1392 1394 1395 1398 1400 42 1403 1404 1406 1407 1411 1413 1414 1415 1417 1418 1421 1423 1425 43 1426 1427 1429 1430 1434 1436 1437 1438 1440 1441 1444 1446 1448 1450 1452 1453 1457 1459 1460 1461 1463 1464 1467 1469 1471 1473 45 1476 1480 1482 1483 1484 1486 1487 1490 1492 1494 1496 1499 1500 1503 1505 1506 1507 1509 1510 1513 1515 1517 1519 1522 1523 1525 47 1526 1528 1529 1530 1532 1533 1536 1538 1540 1542 1545 1546 1548 1549 1550 1551 1552 1553 1555 1556 1559 1561 1563 1565 1568 1569 1571 1572 1573 1575 1576 1578 1579 1582 1584 1586 1588 1591 1592 1594 1595 1596 1598 1601 1602 1605 1607 1609 1611 1614 1615 1617 1618 1619 1621 51 1628 1630 1632 1634 1637 1638 1640 1641 1642 1644 1649 1651 1653 1655 1657 1660 1661 1663 1664 1665 1667 1672 1674 1675 53 1676 1678 1680 1683 1684 1686 1687 1688 1690 1695 1697 1698 1699 1701 1703 1704 1705 1707 1708 1709 1713 1716 1722 1723 1724 1731 1732 1734 1735 1737 1738 1740 1743 1745 1746 56 1748 1753 1755 1758 1759 1761 1762 1763 1764 1766 1767 1768 1769 1770 1771 1773 1778 1781 1783 1785 1787 1789 58 1792 1793 1794 1796 1797 1800 1802 1803 1804 1808 1809 1810 59 1812 1813 1814 1815 1817 1818 1819 1821 1824 1825 1827 1828 1829 1831 1834 1836 1838 1851 1852 1853 1854 1858 1860 1862 1864 62 1866 1869 1870 1873 1874 1875 1877 1878 1879 1880 1883 1884 1886 1887 1891 1894 64 1897 1899 1900 1901 1904 1905 1906 1907 65 1911 1912 1914 1915 1917 1919 1920 1921 1922 1928 1930 1932 67 1936 1937 1938 1939 1940 1942 1943 68 1946 1949 1950 1953 1954 1955 1957 1958 1959 1963 70 1967 1971 71 1973 1974 1975 1978 1979 72 1981 1982 73 1986 1990 1991 1992 75 1997 76 2000 78 0
x 1053 1054 1055 1056 1057 1058 1063 1064 1065 1066 1067 1068 1070 1072 1073 1076 1078 1079 1080 1083 1086 1088 1089 1090 1092 1096 1099 1100 1102 1103 1105 1106 1107 1109 1112 1113 1116 1117 1122 1124 1126 1128 1130 1131 1132 1136 1141 1143 1145 1150 1151 1154 1163 1165 1166 1167 1168 1171 1174 1175 1179 1183 1186 1187 1190 1194 1195 1198 1199 1200 1201 1202 1203 1206 1207 1209 1210 1211 1212 1215 1217 1218 1219 1222 1224 1225 1226 1227 1229 1230 1231 1232 1233 1234 1236 1237 1238 1239 1240 1241 1242 1243 1248 1249 1251 1252 1253 1254 1256 1257 1262 1264 1265 1266 1267 1269 1272 1275 1278 1279 1285 1286 1289 1290 1292 1293 1297 1299 1300 1301 1302 1308 1309 1312 1313 1315 1316 1320 1322 1323 1324 1331 1332 1335 1336 1338 1339 1343 1345 1346 1347 1349 1350 1354 1355 1358 1359 1361 1362 1366 1368 1369 1370 1372 1373 41 1377 1378 1381 1382 1384 1385 1389 1391 1392 1393 1395 1396 1399 1401 1404 1405 1407 1408 1412 1414 1415 1416 1418 1419 1422 1424 43 1427 1428 1430 1431 1435 1437 1438 1439 1441 1442 1445 1447 1449 44 1451 1453 1454 1458 1460 1461 1462 1464 1465 1468 1470 1472 1474 1476 1477 1481 1483 1484 1485 1487 1488 1491 1493 1495 1497 1500 1504 1506 1507 1508 1510 1511 1514 1516 1518 1520 1523 1524 1527 1529 1530 1531 1533 1534 1537 1539 1541 1543 1546 1547 1549 1550 1552 1553 1554 1556 1557 1560 1562 1564 1566 1569 1570 1572 1573 1574 49 1576 1577 1579 1580 1583 1585 1587 1589 1592 1593 1595 1596 1597 1599 50 1602 1603 1606 1608 1610 1612 1615 1616 1618 1619 1620 1622 1626 1629 1631 1633 1635 1638 1639 1641 1642 1643 1645 1650 1652 1654 1656 1658 1661 1662 1664 1665 1666 1668 1673 1675 53 1677 1679 1681 1684 1685 1687 1688 1689 1691 1696 1698 1699 1700 1701 1702 1705 1708 1709 1713 1719 1722 1724 1726 1727 1729 1731 1732 1733 1734 1736 1738 1739 1741 1744 1745 56 1748 1749 1750 1756 1757 1758 1759 1760 1761 1762 1764 1765 1766 1768 1769 1772 1773 1774 1776 1777 1779 1782 1784 1786 1787 1789 1790 1793 1795 1804 1805 1806 1807 1809 59 1811 1813 1816 1818 1819 1820 1822 1827 1828 60 1830 1832 1833 1834 1835 1842 1843 1846 1847 1848 1849 1852 1853 1854 1855 1860 1864 1865 1866 1867 1869 1870 1876 1880 63 1884 1885 1887 1888 1889 1890 1891 1892 1893 1894 1895 64 1897 1898 1899 1900 1901 1903 1905 1908 1909 1912 1913 1917 1918 1919 1921 1922 1923 1926 1927 1929 1930 1934 1940 1942 1943 1944 68 1946 1953 1955 69 1956 1957 1958 1966 1967 1968 1969 1970 71 1973 1975 1976 1978 1979 1981 1983 1984 73 1987 1988 74 1993 75 76 1999 77 2000 0
x -1051 1052 1054 1056 1057 1059 1060 1062 1063 1064 1065 1066 1067 1069 1071 1072 1074 1075 1077 1080 1081 1082 1086 1089 1090 1091 1092 1093 1096 1099 1100 1104 1107 1111 1113 1114 1116 1117 1118 1120 1121 1125 1129 1130 1131 1133 1134 1135 1137 1140 1142 1145 1146 1147 1151 1152 1154 1155 1156 1158 1159 1166 1167 1171 1172 1178 1182 1183 1184 1187 1191 1192 1193 1196 1203 1206 1208 1210 1211 1213 1217 1218 1220 1224 1225 1226 1227 1232 1233 1234 1235 1236 1237 1238 1239 1242 1244 1247 1248 1249 1251 1253 1257 1258 1260 1263 1264 1266 1268 1270 1271 1272 1273 1274 1279 1280 1286 1287 1290 1291 1293 1294 1298 1300 38 1302 1303 1309 1310 1313 1314 1316 1317 1321 1323 1324 1325 39 1326 1332 1333 1336 1337 1339 1340 1344 1346 1347 1348 1350 1355 1356 1359 1360 1362 1363 1367 1369 1370 1371 1373 1374 41 1378 1379 1382 1383 1385 1386 1390 1392 1393 1394 1396 1397 1400 42 1401 1402 1405 1406 1408 1409 1413 1415 1416 1417 1419 1420 1423 1425 1428 1429 1431 1432 1436 1438 1439 1440 1442 1443 1446 1448 1450 44 1451 1452 1454 1455 1459 1461 1462 1463 1465 1466 1469 1471 1473 1475 45 1477 1478 1482 1484 1485 1486 1488 1489 1492 1494 1496 1498 46 1501 1505 1507 1508 1509 1511 1512 1515 1517 1519 1521 1524 1525 47 1528 1530 1531 1532 1534 1535 1538 1540 1542 1544 1547 1548 1550 48 1551 1553 1554 1555 1557 1558 1561 1563 1565 1567 1570 1571 1573 1574 1575 1576 1577 1578 1580 1581 1584 1586 1588 1590 1593 1594 1596 1597 1598 1600 50 1601 1603 1604 1607 1609 1611 1613 1616 1617 1619 1620 1621 1623 1626 1627 1630 1632 1634 1636 1639 1640 1642 1643 1644 1646 1653 1655 1657 1659 1662 1663 1665 1666 1667 1669 1674 1676 1678 1680 1682 1685 1686 1688 1689 1690 1692 1697 1699 1700 54 1701 1703 1704 1705 1706 1707 1710 1712 1713 1714 1720 1724 55 1728 1729 1730 1732 1734 1735 1736 1739 56 1748 1750 1753 1756 1758 1759 1760 1761 1762 1763 1765 1766 1768 1771 1773 1774 1777 1779 1780 1782 1783 1784 1785 1790 58 1791 1793 1794 1797 1805 1806 1809 1810 59 1812 1813 1814 1816 1819 1821 1822 1823 1825 1826 1828 1831 1832 1834 1835 1836 1845 61 1849 1851 1853 1855 1859 1860 1861 1863 1864 62 1865 1866 1867 1868 1870 1871 1875 1876 1879 1880 63 1881 1884 1885 1888 1891 1892 1895 1898 1899 1900 1901 1902 1903 1905 1906 1907 1908 1909 1910 1912 1913 1914 1915 1916 1918 66 1924 1929 1930 1932 1937 1938 1942 1943 68 1948 1949 1951 1952 1954 69 1956 1957 1958 1960 1962 1963 1965 1969 1970 1971 1972 71 1973 72 1980 1982 1985 73 1986 1987 1988 74 1992 1994 75 1995 2000 78 0
x 1053 1056 1057 1058 1060 1061 1066 1067 1068 1071 1072 1073 1074 1075 1078 1079 1080 1081 1082 1083 1088 1089 1090 1091 1092 1093 1095 1097 1098 1101 1103 1104 1105 1108 1111 1113 1114 1115 1117 1121 1124 1125 1127 1128 1130 1131 1132 1134 1137 1138 1141 1142 1147 1149 1151 1153 1155 1156 1157 1161 1166 1168 1170 1175 1176 1179 1188 1190 1191 1192 1193 1196 1199 1200 1204 1208 1211 1212 1215 1219 1220 1223 1224 1225 1226 1227 1228 1231 1232 1234 1235 1236 1237 1240 1242 1243 1244 1247 1249 1250 1251 1252 1254 1255 1256 1257 1258 1259 1261 1262 1263 1264 1265 1266 1267 1268 1273 1274 37 1276 1280 1281 1287 1288 1291 1292 1294 1295 1299 38 1303 1304 1310 1311 1314 1315 1317 1318 1322 1324 1325 1326 1327 1333 1334 1337 1338 1340 1341 1345 1347 1348 1349 1356 1357 1360 1361 1363 1364 1368 1370 1371 1372 1374 1375 1379 1380 1383 1384 1386 1387 1391 1393 1394 1395 1397 1398 42 1402 1403 1406 1407 1409 1410 1414 1416 1417 1418 1420 1421 1424 1426 1429 1430 1432 1433 1437 1439 1440 1441 1443 1444 1447 1449 1452 1453 1455 1456 1460 1462 1463 1464 1466 1467 1470 1472 1474 1476 1478 1479 1483 1485 1486 1487 1489 1490 1493 1495 1497 1499 1501 1502 1506 1508 1509 1510 1512 1513 1516 1518 1520 1522 1525 1529 1531 1532 1533 1535 1536 1539 1541 1543 1545 1548 1549 1552 1554 1555 1556 1558 1559 1562 1564 1566 1568 1571 1572 1574 1575 49 1577 1578 1579 1581 1582 1585 1587 1589 1591 1594 1595 1597 1598 1599 50 1601 1602 1604 1605 1608 1610 1612 1614 1617 1618 1620 1621 1622 1624 51 1627 1628 1631 1633 1635 1637 1640 1641 1643 1644 1645 1647 52 1651 1654 1656 1658 1660 1663 1664 1666 1667 1668 1670 1675 53 1677 1679 1681 1683 1686 1687 1689 1690 1691 1693 1698 1700 1704 1706 1708 1713 1718 1720 1721 1723 1724 55 1725 1727 1728 1729 1731 1732 1733 1737 1740 1746 1747 1754 1755 1757 1758 1760 1761 1763 1766 1768 1769 57 1770 1775 1777 1780 1781 1783 1784 1785 1786 1788 1789 1790 1791 1792 1794 1799 1802 1804 1806 1808 1810 1812 1813 1814 1816 1817 1820 1822 1823 1824 1828 1829 60 1831 1832 1833 1834 1836 1837 1838 1840 1843 1844 1846 1847 61 1849 1852 1854 1856 1868 1869 1870 1871 1875 1877 1879 63 1882 1885 1886 1889 1890 1891 1893 1894 1895 64 1898 1899 1901 1902 1906 1909 65 1911 1913 1914 1915 1918 1919 1920 1921 1924 1925 1927 1928 1930 1932 1933 1934 1940 1942 1944 1947 1948 1949 1950 1951 1953 1954 69 1956 1959 1960 1963 1964 70 1966 1967 1968 1972 1975 1979 1980 1981 1982 1985 1987 1988 1991 75 1995 1996 76 78 0
x -1051 1053 1054 1056 1057 1058 1062 1063 1064 1067 1068 1072 1075 1076 1077 1079 1081 1082 1084 1085 1087 1088 1089 1090 1091 1092 1094 1096 1097 1099 1100 1102 1105 1106 1107 1111 1114 1115 1116 1117 1118 1121 1124 1125 1129 1132 1136 1138 1139 1141 1142 1143 1145 1146 1150 1154 1155 1156 1158 1159 1160 1162 1165 1167 1170 1171 1172 1176 1177 1179 1180 1181 1183 1184 1191 1192 1196 1197 1203 1207 1208 1209 1212 1216 1217 1218 1221 1228 1231 1233 1235 1236 1238 1242 1243 1245 1249 1250 1251 1252 1257 1258 1259 1260 1261 1262 1263 1264 1267 1269 1272 1273 1274 1276 1277 1281 1282 1288 1289 1292 1293 1295 1296 1300 1304 1305 1311 1312 1315 1316 1318 1319 1323 1325 39 1327 1328 1334 1335 1338 1339 1341 1342 1346 1348 1349 1350 1351 1357 1358 1361 1362 1364 1365 1369 1371 1372 1373 1375 1380 1381 1384 1385 1387 1388 1392 1394 1395 1396 1398 1399 42 1403 1404 1407 1408 1410 1411 1415 1417 1418 1419 1421 1422 1425 43 1426 1427 1430 1431 1433 1434 1438 1440 1441 1442 1444 1445 1448 1450 1453 1454 1456 1457 1461 1463 1464 1465 1467 1468 1471 1473 1475 1476 1477 1479 1480 1484 1486 1487 1488 1490 1491 1494 1496 1498 1500 1502 1503 1507 1509 1510 1511 1513 1514 1517 1519 1521 1523 1526 1530 1532 1533 1534 1536 1537 1540 1542 1544 1546 1549 1550 1553 1555 1556 1557 1559 1560 1563 1565 1567 1569 1572 1573 1575 1576 1578 1579 1580 1582 1583 1586 1588 1590 1592 1595 1596 1598 1599 1600 50 1601 1602 1603 1605 1606 1609 1611 1613 1615 1618 1619 1621 1622 1623 1625 51 1626 1628 1629 1632 1634 1636 1638 1641 1642 1644 1645 1646 1648 52 1651 1652 1655 1657 1659 1661 1664 1665 1667 1668 1669 1671 1678 1680 1682 1684 1687 1688 1690 1691 1692 1694 1699 1701 1702 1703 1706 1707 1708 1709 1710 1713 1719 1721 1722 1725 1726 1729 1732 1733 1737 1743 1746 1749 1750 1752 1754 1755 1756 1757 1759 1761 1762 1764 1767 1768 57 1770 1771 1772 1778 1779 1780 1781 1782 1783 1784 1786 1787 1788 1790 1793 1794 1795 1797 1798 1800 1803 1805 1807 1808 1810 1813 1815 1824 1825 1826 1827 1829 1830 1832 1835 1837 1838 1839 1841 1846 1847 1848 1850 1851 1852 1853 1860 1861 1864 62 1865 1866 1869 1870 1871 1872 1877 63 1881 1882 1883 1885 1886 1892 64 1899 1900 1902 1903 1904 1905 1906 1907 1908 1909 65 1911 1912 1913 1914 1915 1917 1919 1922 1925 1926 1930 1931 1932 1934 1935 1938 1939 1941 1942 1951 1953 1954 1955 1956 1963 1965 1966 1967 71 1974 1975 1976 1977 1978 1980 1982 1983 1985 1987 1989 1990 1992 1993 1997 77 78 0
x 1051 1052 1053 1054 1055 1056 1058 1059 1063 1066 1068 1069 1071 1072 1073 1075 1078 1081 1082 1083 1085 1086 1091 1092 1093 1096 1097 1098 1099 1100 1103 1104 1105 1106 1107 1108 1113 1114 1115 1116 1117 1118 1120 1122 1123 1126 1128 1129 1130 1133 1136 1138 1139 1140 1142 1146 1149 1150 1152 1153 1155 1156 1157 1159 1162 1163 1166 1167 1172 1174 1176 1178 1180 1181 1182 1186 1191 1193 1195 1200 1201 1204 1213 1215 1216 1217 1218 1221 1224 1225 1229 1233 1236 1237 1240 1244 1245 1248 1249 1250 1251 1252 1253 1256 1257 1259 1260 1261 1262 1265 1267 1268 1269 1272 1274 1275 37 1276 1277 1278 1282 1283 1289 1290 1293 1294 1296 1297 38 1301 1305 1306 1312 1313 1316 1317 1319 1320 1324 39 1328 1329 1335 1336 1339 1340 1342 1343 1347 1349 1350 1351 1352 1358 1359 1362 1363 1365 1366 1370 1372 1373 1374 41 1381 1382 1385 1386 1388 1389 1393 1395 1396 1397 1399 1400 42 1404 1405 1408 1409 1411 1412 1416 1418 1419 1420 1422 1423 1427 1428 1431 1432 1434 1435 1439 1441 1442 1443 1445 1446 1449 44 1451 1454 1455 1457 1458 1462 1464 1465 1466 1468 1469 1472 1474 1477 1478 1480 1481 1485 1487 1488 1489 1491 1492 1495 1497 1499 1501 1503 1504 1508 1510 1511 1512 1514 1515 1518 1520 1522 1524 47 1526 1527 1531 1533 1534 1535 1537 1538 1541 1543 1545 1547 1550 1554 1556 1557 1558 1560 1561 1564 1566 1568 1570 1573 1574 1577 1579 1580 1581 1583 1584 1587 1589 1591 1593 1596 1597 1599 1600 50 1602 1603 1604 1606 1607 1610 1612 1614 1616 1619 1620 1622 1623 1624 1626 1627 1629 1630 1633 1635 1637 1639 1642 1643 1645 1646 1647 1649 1652 1653 1656 1658 1660 1662 1665 1666 1668 1669 1670 1672 1676 1679 1681 1683 1685 1688 1689 1691 1692 1693 1695 1700 54 1701 1702 1704 1706 1707 1709 1710 1711 1712 1714 1715 1716 1719 1720 1721 1722 1723 1724 55 1725 1727 1728 1729 1730 1731 1734 1736 1737 1738 1744 56 1751 1752 1753 1755 1757 1758 1759 1762 1770 1772 1775 1778 1780 1781 1782 1783 1784 1785 1787 1788 1790 1792 1794 1795 1798 1800 1801 1803 1804 1805 1806 59 1811 1813 1814 1817 1825 1826 1829 1831 1832 1833 1835 1838 1840 1841 1842 1844 1845 1847 61 1849 1850 1852 1853 1854 1863 1866 1868 1870 1872 1876 1877 1878 1880 63 1881 1882 1883 1884 1886 1887 1891 1892 1895 1896 1899 1900 1903 1906 1907 65 1912 1913 1914 1915 1916 1917 1919 1920 1921 1922 1923 1925 1926 1927 1928 1929 1931 1936 1941 1942 1944 68 1948 1949 1953 1954 1958 1959 1961 1962 1964 70 1965 1966 1967 1969 1971 1972 1973 1977 1978 1979 72 1980 1986 1988 1991 1992 1993 75 1996 76 1998 77 78 0
x 1052 1053 1055 1056 1059 1062 1065 1067 1069 1072 1073 1075 1076 1078 1079 1081 1082 1083 1087 1088 1089 1092 1093 1097 1100 1101 1102 1104 1106 1107 1109 1110 1112 1113 1114 1115 1116 1117 1119 1121 1122 1124 1125 1127 1130 1131 1132 1136 1139 1140 1141 1142 1143 1146 1149 1150 1154 1157 1161 1163 1164 1166 1167 1168 1170 1171 1175 1179 1180 1181 1183 1184 1185 1187 1190 1192 1195 1196 1197 1201 1202 1204 1205 1206 1208 1209 1216 1217 1221 1222 1228 1232 1233 1234 1237 1241 1242 1243 1246 1253 1256 1258 1260 1261 1263 1267 1268 1270 1274 1275 37 1276 1277 1278 1279 1283 1284 1290 1291 1294 1295 1297 1298 1301 1302 1306 1307 1313 1314 1317 1318 1320 1321 1325 39 1329 1330 1336 1337 1340 1341 1343 1344 1348 1350 40 1352 1353 1359 1360 1363 1364 1366 1367 1371 1373 1374 1375 1376 1382 1383 1386 1387 1389 1390 1394 1396 1397 1398 1400 42 1405 1406 1409 1410 1412 1413 1417 1419 1420 1421 1423 1424 1428 1429 1432 1433 1435 1436 1440 1442 1443 1444 1446 1447 1450 1451 1452 1455 1456 1458 1459 1463 1465 1466 1467 1469 1470 1473 1475 1478 1479 1481 1482 1486 1488 1489 1490 1492 1493 1496 1498 1500 46 1501 1502 1504 1505 1509 1511 1512 1513 1515 1516 1519 1521 1523 1525 1527 1528 1532 1534 1535 1536 1538 1539 1542 1544 1546 1548 48 1551 1555 1557 1558 1559 1561 1562 1565 1567 1569 1571 1574 1575 1578 1580 1581 1582 1584 1585 1588 1590 1592 1594 1597 1598 1600 1601 1603 1604 1605 1607 1608 1611 1613 1615 1617 1620 1621 1623 1624 1625 1626 1627 1628 1630 1631 1634 1636 1638 1640 1643 1644 1646 1647 1648 1650 52 1651 1653 1654 1657 1659 1661 1663 1666 1667 1669 1670 1671 1673 1676 1677 1680 1682 1684 1686 1689 1690 1692 1693 1694 1696 1704 1705 1706 1708 1709 1710 1712 1713 1714 1716 1717 1720 1721 1722 1723 1724 55 1728 1730 1732 1737 1742 1744 1745 1747 56 1748 1750 1751 1752 1754 1755 1756 1760 1763 1769 57 1776 1777 1779 1780 1782 1783 1785 1788 1790 1791 1796 1798 1801 1802 1804 1805 1806 1807 1809 1810 1811 1812 1814 1819 1822 1824 1826 1828 1831 1832 1833 1835 1836 1839 1841 1842 1843 1847 1849 1850 1851 1852 1854 1855 1856 1858 1861 1862 1864 62 1866 1869 1871 1873 63 1884 1885 1886 1887 1891 1893 1895 1897 1900 1901 1904 1905 1906 1908 1909 1912 1913 1915 1916 1920 66 1924 1926 1927 1928 1931 1932 1933 1934 1936 1937 1939 1940 1942 1944 1945 1951 1953 1955 69 1957 1958 1959 1960 1961 1963 1964 1965 1968 1969 1972 1974 1975 1976 1982 1986 1987 1988 1992 1993 75 1995 76 1998 1999 77 78 0
x -1053 1056 1058 1060 1063 1065 1067 1068 1070 1072 1074 1076 1077 1078 1079 1080 1081 1083 1084 1088 1091 1093 1094 1096 1097 1098 1100 1103 1106 1107 1108 1110 1111 1116 1117 1118 1121 1122 1123 1124 1125 1128 1129 1130 1131 1132 1133 1138 1139 1140 1141 1142 1143 1145 1147 1148 1151 1153 1154 1155 1158 1161 1163 1164 1165 1167 1171 1174 1175 1177 1178 1180 1181 1182 1184 1187 1188 1191 1192 1197 1199 1201 1203 1205 1206 1207 1211 1216 1218 1220 1225 1226 1229 1238 1240 1241 1242 1243 1246 1249 1250 1254 1258 1261 1262 1265 1269 1270 1273 1274 1275 37 1277 1278 1279 1280 1284 1285 1291 1292 1295 1296 1298 1299 38 1301 1302 1303 1307 1308 1314 1315 1318 1319 1321 1322 1326 1330 1331 1337 1338 1341 1342 1344 1345 1349 40 1353 1354 1360 1361 1364 1365 1367 1368 1372 1374 1375 1376 1377 1383 1384 1387 1388 1390 1391 1395 1397 1398 1399 42 1406 1407 1410 1411 1413 1414 1418 1420 1421 1422 1424 1425 43 1429 1430 1433 1434 1436 1437 1441 1443 1444 1445 1447 1448 1452 1453 1456 1457 1459 1460 1464 1466 1467 1468 1470 1471 1474 1476 1479 1480 1482 1483 1487 1489 1490 1491 1493 1494 1497 1499 46 1502 1503 1505 1506 1510 1512 1513 1514 1516 1517 1520 1522 1524 1526 1528 1529 1533 1535 1536 1537 1539 1540 1543 1545 1547 1549 48 1551 1552 1556 1558 1559 1560 1562 1563 1566 1568 1570 1572 1575 1579 1581 1582 1583 1585 1586 1589 1591 1593 1595 1598 1599 50 1602 1604 1605 1606 1608 1609 1612 1614 1616 1618 1621 1622 1624 1625 51 1627 1628 1629 1631 1632 1635 1637 1639 1641 1644 1645 1647 1648 1649 1651 1652 1654 1655 1658 1660 1662 1664 1667 1668 1670 1671 1672 1674 53 1677 1678 1681 1683 1685 1687 1690 1691 1693 1694 1695 1697 54 1701 1702 1704 1705 1706 1710 1711 1714 1715 1716 1718 1720 1721 1723 1724 55 1725 1726 1727 1730 1731 1732 1733 1734 1737 1743 1745 1746 56 1748 1749 1752 1755 1756 1760 1766 1769 1771 1772 1774 1776 1777 1778 1779 1781 1783 1784 1786 1789 1790 58 1791 1792 1793 1799 1800 1801 1802 1803 1804 1805 1807 1808 1809 59 1813 1814 1815 1817 1818 1820 1823 1825 1827 1828 1832 1834 1843 1844 1845 1846 61 1848 1850 1853 1855 1856 1857 1859 1864 62 1865 1867 1868 1869 1870 1877 1878 63 1881 1882 1885 1886 1887 1888 1893 64 1896 1897 1898 1900 1901 1907 1913 1914 1916 1917 1918 1919 1920 1921 1922 66 1924 1925 1926 1927 1928 1930 1932 1937 1938 1942 1943 1944 68 1946 1949 1950 1952 1953 1961 1963 1964 70 1965 1972 1973 1974 1975 72 1981 1982 1983 1984 1985 73 1986 1988 1989 1992 1994 75 1996 1997 77 78 0
