c frozen sparse O-aware rational recursive S3 base
p cnf 111 364
1 2 3 4 5 6 7 8 0
-1 60 0
-2 61 0
-60 61 0
-2 -60 0
-3 62 0
-61 62 0
-3 -61 0
-4 63 0
-62 63 0
-4 -62 0
-5 64 0
-63 64 0
-5 -63 0
-6 65 0
-64 65 0
-6 -64 0
-7 66 0
-65 66 0
-7 -65 0
-8 -66 0
9 10 11 12 13 14 15 16 0
-9 67 0
-10 68 0
-67 68 0
-10 -67 0
-11 69 0
-68 69 0
-11 -68 0
-12 70 0
-69 70 0
-12 -69 0
-13 71 0
-70 71 0
-13 -70 0
-14 72 0
-71 72 0
-14 -71 0
-15 73 0
-72 73 0
-15 -72 0
-16 -73 0
17 18 19 20 21 22 23 24 0
-17 74 0
-18 75 0
-74 75 0
-18 -74 0
-19 76 0
-75 76 0
-19 -75 0
-20 77 0
-76 77 0
-20 -76 0
-21 78 0
-77 78 0
-21 -77 0
-22 79 0
-78 79 0
-22 -78 0
-23 80 0
-79 80 0
-23 -79 0
-24 -80 0
25 26 27 28 29 30 31 32 0
-25 81 0
-26 82 0
-81 82 0
-26 -81 0
-27 83 0
-82 83 0
-27 -82 0
-28 84 0
-83 84 0
-28 -83 0
-29 85 0
-84 85 0
-29 -84 0
-30 86 0
-85 86 0
-30 -85 0
-31 87 0
-86 87 0
-31 -86 0
-32 -87 0
33 34 35 36 37 38 39 40 41 0
-33 88 0
-34 89 0
-88 89 0
-34 -88 0
-35 90 0
-89 90 0
-35 -89 0
-36 91 0
-90 91 0
-36 -90 0
-37 92 0
-91 92 0
-37 -91 0
-38 93 0
-92 93 0
-38 -92 0
-39 94 0
-93 94 0
-39 -93 0
-40 95 0
-94 95 0
-40 -94 0
-41 -95 0
42 43 44 45 46 47 48 49 50 0
-42 96 0
-43 97 0
-96 97 0
-43 -96 0
-44 98 0
-97 98 0
-44 -97 0
-45 99 0
-98 99 0
-45 -98 0
-46 100 0
-99 100 0
-46 -99 0
-47 101 0
-100 101 0
-47 -100 0
-48 102 0
-101 102 0
-48 -101 0
-49 103 0
-102 103 0
-49 -102 0
-50 -103 0
51 52 53 54 55 56 57 58 59 0
-51 104 0
-52 105 0
-104 105 0
-52 -104 0
-53 106 0
-105 106 0
-53 -105 0
-54 107 0
-106 107 0
-54 -106 0
-55 108 0
-107 108 0
-55 -107 0
-56 109 0
-108 109 0
-56 -108 0
-57 110 0
-109 110 0
-57 -109 0
-58 111 0
-110 111 0
-58 -110 0
-59 -111 0
-1 -9 33 0
-1 -10 35 0
-1 -11 37 0
-1 -12 36 0
-1 -13 41 0
-1 -14 40 0
-1 -15 39 0
-1 -16 38 0
-2 -9 35 0
-2 -10 33 34 0
-2 -11 36 37 0
-2 -12 36 37 0
-2 -13 39 40 0
-2 -14 38 41 0
-2 -15 38 41 0
-2 -16 39 40 0
-3 -9 37 0
-3 -10 36 37 0
-3 -11 33 35 0
-3 -12 34 35 0
-3 -13 38 39 0
-3 -14 38 40 0
-3 -15 39 41 0
-3 -16 40 41 0
-4 -9 36 0
-4 -10 36 37 0
-4 -11 34 35 0
-4 -12 33 35 0
-4 -13 40 41 0
-4 -14 39 41 0
-4 -15 38 40 0
-4 -16 38 39 0
-5 -9 41 0
-5 -10 39 40 0
-5 -11 38 39 0
-5 -12 40 41 0
-5 -13 33 36 0
-5 -14 35 36 0
-5 -15 35 37 0
-5 -16 34 37 0
-6 -9 40 0
-6 -10 38 41 0
-6 -11 38 40 0
-6 -12 39 41 0
-6 -13 35 36 0
-6 -14 33 37 0
-6 -15 34 36 0
-6 -16 35 37 0
-7 -9 39 0
-7 -10 38 41 0
-7 -11 39 41 0
-7 -12 38 40 0
-7 -13 35 37 0
-7 -14 34 36 0
-7 -15 33 37 0
-7 -16 35 36 0
-8 -9 38 0
-8 -10 39 40 0
-8 -11 40 41 0
-8 -12 38 39 0
-8 -13 34 37 0
-8 -14 35 37 0
-8 -15 35 36 0
-8 -16 33 36 0
-33 -17 43 0
-33 -18 44 0
-33 -19 45 0
-33 -20 46 0
-33 -21 47 0
-33 -22 48 0
-33 -23 49 0
-33 -24 50 0
-34 -17 42 0
-34 -18 44 0
-34 -19 46 0
-34 -20 45 0
-34 -21 50 0
-34 -22 49 0
-34 -23 48 0
-34 -24 47 0
-35 -17 44 0
-35 -18 42 43 0
-35 -19 45 46 0
-35 -20 45 46 0
-35 -21 48 49 0
-35 -22 47 50 0
-35 -23 47 50 0
-35 -24 48 49 0
-36 -17 46 0
-36 -18 45 46 0
-36 -19 42 44 0
-36 -20 43 44 0
-36 -21 47 48 0
-36 -22 47 49 0
-36 -23 48 50 0
-36 -24 49 50 0
-37 -17 45 0
-37 -18 45 46 0
-37 -19 43 44 0
-37 -20 42 44 0
-37 -21 49 50 0
-37 -22 48 50 0
-37 -23 47 49 0
-37 -24 47 48 0
-38 -17 50 0
-38 -18 48 49 0
-38 -19 47 48 0
-38 -20 49 50 0
-38 -21 42 45 0
-38 -22 44 45 0
-38 -23 44 46 0
-38 -24 43 46 0
-39 -17 49 0
-39 -18 47 50 0
-39 -19 47 49 0
-39 -20 48 50 0
-39 -21 44 45 0
-39 -22 42 46 0
-39 -23 43 45 0
-39 -24 44 46 0
-40 -17 48 0
-40 -18 47 50 0
-40 -19 48 50 0
-40 -20 47 49 0
-40 -21 44 46 0
-40 -22 43 45 0
-40 -23 42 46 0
-40 -24 44 45 0
-41 -17 47 0
-41 -18 48 49 0
-41 -19 49 50 0
-41 -20 47 48 0
-41 -21 43 46 0
-41 -22 44 46 0
-41 -23 44 45 0
-41 -24 42 45 0
-42 -25 52 0
-42 -26 53 0
-42 -27 54 0
-42 -28 55 0
-42 -29 56 0
-42 -30 57 0
-42 -31 58 0
-42 -32 59 0
-43 -25 51 0
-43 -26 53 0
-43 -27 55 0
-43 -28 54 0
-43 -29 59 0
-43 -30 58 0
-43 -31 57 0
-43 -32 56 0
-44 -25 53 0
-44 -26 51 52 0
-44 -27 54 55 0
-44 -28 54 55 0
-44 -29 57 58 0
-44 -30 56 59 0
-44 -31 56 59 0
-44 -32 57 58 0
-45 -25 55 0
-45 -26 54 55 0
-45 -27 51 53 0
-45 -28 52 53 0
-45 -29 56 57 0
-45 -30 56 58 0
-45 -31 57 59 0
-45 -32 58 59 0
-46 -25 54 0
-46 -26 54 55 0
-46 -27 52 53 0
-46 -28 51 53 0
-46 -29 58 59 0
-46 -30 57 59 0
-46 -31 56 58 0
-46 -32 56 57 0
-47 -25 59 0
-47 -26 57 58 0
-47 -27 56 57 0
-47 -28 58 59 0
-47 -29 51 54 0
-47 -30 53 54 0
-47 -31 53 55 0
-47 -32 52 55 0
-48 -25 58 0
-48 -26 56 59 0
-48 -27 56 58 0
-48 -28 57 59 0
-48 -29 53 54 0
-48 -30 51 55 0
-48 -31 52 54 0
-48 -32 53 55 0
-49 -25 57 0
-49 -26 56 59 0
-49 -27 57 59 0
-49 -28 56 58 0
-49 -29 53 55 0
-49 -30 52 54 0
-49 -31 51 55 0
-49 -32 53 54 0
-50 -25 56 0
-50 -26 57 58 0
-50 -27 58 59 0
-50 -28 56 57 0
-50 -29 52 55 0
-50 -30 53 55 0
-50 -31 53 54 0
-50 -32 51 54 0
