c frozen O-aware sign-complete rational recursive S3 base
p cnf 31 258
1 2 3 4 0
-1 -2 0
-1 -3 0
-1 -4 0
-2 -3 0
-2 -4 0
-3 -4 0
5 6 7 8 0
-5 -6 0
-5 -7 0
-5 -8 0
-6 -7 0
-6 -8 0
-7 -8 0
9 10 11 12 0
-9 -10 0
-9 -11 0
-9 -12 0
-10 -11 0
-10 -12 0
-11 -12 0
13 14 15 16 0
-13 -14 0
-13 -15 0
-13 -16 0
-14 -15 0
-14 -16 0
-15 -16 0
17 18 19 20 21 0
-17 -18 0
-17 -19 0
-17 -20 0
-17 -21 0
-18 -19 0
-18 -20 0
-18 -21 0
-19 -20 0
-19 -21 0
-20 -21 0
22 23 24 25 26 0
-22 -23 0
-22 -24 0
-22 -25 0
-22 -26 0
-23 -24 0
-23 -25 0
-23 -26 0
-24 -25 0
-24 -26 0
-25 -26 0
27 28 29 30 31 0
-27 -28 0
-27 -29 0
-27 -30 0
-27 -31 0
-28 -29 0
-28 -30 0
-28 -31 0
-29 -30 0
-29 -31 0
-30 -31 0
-1 -5 -18 0
-1 -5 -19 0
-1 -5 -20 0
-1 -5 -21 0
-1 -6 -17 0
-1 -6 -18 0
-1 -6 -20 0
-1 -6 -21 0
-1 -7 -17 0
-1 -7 -18 0
-1 -7 -19 0
-1 -7 -20 0
-1 -8 -17 0
-1 -8 -18 0
-1 -8 -19 0
-1 -8 -21 0
-2 -5 -17 0
-2 -5 -18 0
-2 -5 -20 0
-2 -5 -21 0
-2 -6 -19 0
-2 -6 -20 0
-2 -6 -21 0
-2 -7 -17 0
-2 -7 -18 0
-2 -7 -19 0
-2 -8 -17 0
-2 -8 -18 0
-2 -8 -19 0
-3 -5 -17 0
-3 -5 -18 0
-3 -5 -19 0
-3 -5 -20 0
-3 -6 -17 0
-3 -6 -18 0
-3 -6 -19 0
-3 -7 -18 0
-3 -7 -20 0
-3 -7 -21 0
-3 -8 -17 0
-3 -8 -20 0
-3 -8 -21 0
-4 -5 -17 0
-4 -5 -18 0
-4 -5 -19 0
-4 -5 -21 0
-4 -6 -17 0
-4 -6 -18 0
-4 -6 -19 0
-4 -7 -17 0
-4 -7 -20 0
-4 -7 -21 0
-4 -8 -18 0
-4 -8 -20 0
-4 -8 -21 0
-17 -9 -22 0
-17 -9 -24 0
-17 -9 -25 0
-17 -9 -26 0
-17 -10 -22 0
-17 -10 -23 0
-17 -10 -25 0
-17 -10 -26 0
-17 -11 -22 0
-17 -11 -23 0
-17 -11 -24 0
-17 -11 -26 0
-17 -12 -22 0
-17 -12 -23 0
-17 -12 -24 0
-17 -12 -25 0
-18 -9 -23 0
-18 -9 -24 0
-18 -9 -25 0
-18 -9 -26 0
-18 -10 -22 0
-18 -10 -23 0
-18 -10 -25 0
-18 -10 -26 0
-18 -11 -22 0
-18 -11 -23 0
-18 -11 -24 0
-18 -11 -25 0
-18 -12 -22 0
-18 -12 -23 0
-18 -12 -24 0
-18 -12 -26 0
-19 -9 -22 0
-19 -9 -23 0
-19 -9 -25 0
-19 -9 -26 0
-19 -10 -24 0
-19 -10 -25 0
-19 -10 -26 0
-19 -11 -22 0
-19 -11 -23 0
-19 -11 -24 0
-19 -12 -22 0
-19 -12 -23 0
-19 -12 -24 0
-20 -9 -22 0
-20 -9 -23 0
-20 -9 -24 0
-20 -9 -25 0
-20 -10 -22 0
-20 -10 -23 0
-20 -10 -24 0
-20 -11 -23 0
-20 -11 -25 0
-20 -11 -26 0
-20 -12 -22 0
-20 -12 -25 0
-20 -12 -26 0
-21 -9 -22 0
-21 -9 -23 0
-21 -9 -24 0
-21 -9 -26 0
-21 -10 -22 0
-21 -10 -23 0
-21 -10 -24 0
-21 -11 -22 0
-21 -11 -25 0
-21 -11 -26 0
-21 -12 -23 0
-21 -12 -25 0
-21 -12 -26 0
-22 -13 -27 0
-22 -13 -29 0
-22 -13 -30 0
-22 -13 -31 0
-22 -14 -27 0
-22 -14 -28 0
-22 -14 -30 0
-22 -14 -31 0
-22 -15 -27 0
-22 -15 -28 0
-22 -15 -29 0
-22 -15 -31 0
-22 -16 -27 0
-22 -16 -28 0
-22 -16 -29 0
-22 -16 -30 0
-23 -13 -28 0
-23 -13 -29 0
-23 -13 -30 0
-23 -13 -31 0
-23 -14 -27 0
-23 -14 -28 0
-23 -14 -30 0
-23 -14 -31 0
-23 -15 -27 0
-23 -15 -28 0
-23 -15 -29 0
-23 -15 -30 0
-23 -16 -27 0
-23 -16 -28 0
-23 -16 -29 0
-23 -16 -31 0
-24 -13 -27 0
-24 -13 -28 0
-24 -13 -30 0
-24 -13 -31 0
-24 -14 -29 0
-24 -14 -30 0
-24 -14 -31 0
-24 -15 -27 0
-24 -15 -28 0
-24 -15 -29 0
-24 -16 -27 0
-24 -16 -28 0
-24 -16 -29 0
-25 -13 -27 0
-25 -13 -28 0
-25 -13 -29 0
-25 -13 -30 0
-25 -14 -27 0
-25 -14 -28 0
-25 -14 -29 0
-25 -15 -28 0
-25 -15 -30 0
-25 -15 -31 0
-25 -16 -27 0
-25 -16 -30 0
-25 -16 -31 0
-26 -13 -27 0
-26 -13 -28 0
-26 -13 -29 0
-26 -13 -31 0
-26 -14 -27 0
-26 -14 -28 0
-26 -14 -29 0
-26 -15 -27 0
-26 -15 -30 0
-26 -15 -31 0
-26 -16 -28 0
-26 -16 -30 0
-26 -16 -31 0
